0 1:4 2:3 3:2 4:1 5:1 6:2 7:2 8:1 9:1 253:0
0 1:12 2:12 4:11 5:4 6:10 9:3 10:9 11:3 253:0
0 1:8 2:9 4:7 5:1 6:7 9:1 10:1 12:3 13:1 14:2 15:4 16:2 17:3 18:1 19:2 20:3 21:1 22:1 23:1 24:1 253:0
0 1:14 2:15 3:3 4:8 5:6 6:3 7:2 8:1 9:5 10:5 11:4 15:3 20:6 23:2 24:2 25:1 26:2 27:1 28:2 253:0
0 1:6 2:6 4:4 5:2 6:2 9:2 10:3 11:1 12:1 13:1 14:6 15:6 16:3 253:0
0 1:12 2:12 4:6 5:3 6:4 9:2 10:4 11:1 14:6 15:3 253:0
0 1:6 2:6 4:17 5:3 6:4 9:3 10:23 11:3 14:2 15:1 23:1 24:2 253:0
0 1:6 2:6 4:3 6:2 9:2 10:3 11:1 15:2 16:1 20:3 22:1 23:1 28:1 29:2 30:2 31:1 32:1 253:0
0 1:12 2:12 4:10 5:5 6:4 9:8 10:8 11:7 23:3 24:3 28:3 29:2 33:2 34:1 35:1 253:0
0 1:2 2:1 3:2 4:16 5:7 7:4 8:2 9:8 10:21 11:7 23:1 24:1 28:1 36:2 37:1 253:0
0 1:6 2:6 3:2 4:7 5:4 6:2 7:2 8:1 9:5 10:5 11:2 12:2 13:1 15:2 16:1 20:1 23:1 24:1 28:1 35:1 38:1 39:2 40:1 41:1 42:2 43:1 44:2 45:1 253:0
0 4:4 5:3 9:2 10:2 11:1 15:2 20:2 22:2 23:3 24:3 28:1 46:1 47:1 48:1 49:2 50:1 51:2 52:2 53:1 253:0
0 1:6 2:6 4:11 6:4 10:11 12:3 13:1 15:1 20:1 23:2 24:4 54:1 253:0
0 1:6 2:6 4:4 5:5 9:6 10:1 11:6 14:2 15:4 16:2 20:1 29:2 253:0
0 1:11 2:14 4:8 5:4 6:4 9:3 10:5 11:3 14:2 15:1 253:0
0 1:6 2:6 4:7 5:1 6:4 9:3 10:4 11:3 14:4 15:6 16:3 20:3 22:2 23:1 55:1 253:0
0 1:6 2:6 4:5 5:1 6:2 9:3 10:4 11:3 15:2 16:1 20:4 22:1 23:1 24:1 253:0
0 9:6 11:3 23:3 28:6 35:3 56:4 57:2 253:0
0 1:6 2:6 4:2 9:2 10:1 11:1 14:4 15:4 16:2 20:2 22:1 23:1 28:1 32:1 253:0
0 1:6 2:6 4:3 5:2 6:2 9:2 10:2 11:1 23:1 28:1 253:0
0 1:6 2:6 4:4 5:3 9:2 10:2 11:1 14:4 15:5 16:2 20:3 253:0
0 4:23 5:4 9:6 10:33 11:6 12:3 13:1 15:1 20:2 253:0
0 1:6 2:6 4:10 5:4 6:2 9:5 10:8 11:3 14:4 15:4 16:2 20:2 23:1 24:2 26:2 27:1 29:2 58:1 59:1 60:1 61:2 62:1 63:2 64:2 65:1 253:0
0 1:18 2:18 4:5 5:4 6:6 9:4 10:2 11:2 14:2 15:2 20:1 22:1 23:3 24:3 28:2 29:2 253:0
0 1:7 2:6 3:2 4:3 5:2 6:3 7:4 8:2 9:1 10:1 15:2 16:1 20:1 22:1 23:1 24:1 25:1 37:1 66:2 67:2 68:1 253:0
0 1:8 2:8 3:3 4:2 5:2 6:1 7:5 8:2 9:1 10:1 17:2 19:1 25:1 26:2 27:1 37:1 66:2 69:1 70:1 71:1 253:0
0 1:6 2:6 4:9 5:4 6:2 9:3 10:11 11:3 15:1 26:4 27:2 40:1 72:1 73:1 74:1 75:1 253:0
0 1:15 2:16 3:3 4:1 6:2 7:2 8:1 14:2 15:2 16:1 20:1 22:1 23:1 24:1 253:0
0 1:6 2:6 4:4 5:2 6:2 9:2 10:2 11:1 23:1 24:1 27:1 28:1 76:1 253:0
0 4:14 10:8 12:10 13:5 15:4 20:7 22:1 23:1 24:1 253:0
0 1:10 2:9 3:2 4:3 5:1 6:3 7:2 8:1 9:3 10:1 11:3 15:2 16:1 20:3 25:1 26:2 27:1 253:0
0 4:6 10:4 12:6 13:3 253:0
0 1:8 2:7 3:1 4:9 5:5 6:8 7:1 9:6 10:6 11:6 17:1 19:1 21:1 23:2 24:2 25:1 26:2 27:1 28:2 69:1 70:1 71:1 253:0
0 1:12 2:12 4:6 5:2 6:4 9:4 10:5 11:6 15:3 16:1 20:6 22:1 23:1 24:1 253:0
0 4:4 5:3 9:3 10:1 11:1 15:2 20:2 27:1 50:1 51:1 52:1 62:1 63:2 64:2 65:1 76:1 77:3 78:2 79:1 80:2 81:2 82:1 83:1 84:1 85:1 86:2 253:0
0 1:12 2:12 4:11 5:5 6:4 9:5 10:11 11:4 23:2 24:3 28:1 33:2 34:1 253:0
0 1:15 2:17 3:2 4:2 5:2 6:3 7:2 8:1 9:2 10:1 11:1 15:1 20:2 25:1 26:2 27:1 32:1 39:1 40:1 87:2 88:1 89:1 253:0
0 1:4 2:3 3:2 4:4 5:3 6:2 7:2 8:1 9:5 10:1 11:2 12:2 13:1 23:1 24:1 28:1 35:1 38:1 39:1 40:1 41:2 72:1 90:1 91:1 253:0
0 1:6 2:6 4:6 5:4 6:4 9:6 10:2 11:3 23:1 28:2 29:2 35:1 253:0
0 1:6 2:6 4:18 6:4 10:19 12:4 13:2 15:5 16:1 20:8 22:1 23:1 24:1 54:1 253:0
0 1:1 3:2 4:4 5:2 6:1 7:4 8:2 9:7 10:3 11:6 23:2 24:1 25:1 28:3 29:1 35:1 36:1 37:1 66:2 253:0
0 1:12 2:12 4:5 5:3 6:4 9:4 10:2 11:3 15:1 20:1 23:1 24:1 26:2 27:1 28:1 29:2 32:1 33:2 34:1 38:1 40:1 72:2 90:1 91:1 253:0
0 1:6 2:6 4:12 5:7 6:4 9:5 10:11 11:4 14:2 15:2 16:1 20:3 23:1 24:1 26:2 27:1 28:1 253:0
0 1:12 2:12 4:8 5:2 6:4 9:3 10:10 11:3 15:1 20:2 253:0
0 1:13 2:14 3:3 4:5 5:6 6:3 7:2 9:7 11:4 14:2 15:1 25:1 29:2 62:2 66:1 92:4 93:1 94:2 95:1 96:1 253:0
0 4:2 5:1 9:2 11:1 15:1 20:1 62:1 74:1 75:1 97:2 98:1 99:1 100:1 101:1 253:0
0 1:12 2:12 9:2 29:4 58:1 59:1 60:1 61:2 62:1 63:2 64:2 65:1 92:2 253:0
0 1:6 2:6 4:4 5:2 6:4 9:4 11:3 12:3 13:2 15:1 20:1 22:1 23:2 24:2 28:1 29:2 38:1 39:1 40:1 41:1 72:1 253:0
0 1:3 2:2 4:6 6:2 10:2 14:4 15:6 16:2 20:4 22:2 23:2 24:2 42:2 43:1 44:2 102:2 253:0
0 1:12 2:12 4:3 5:1 9:3 11:1 14:4 15:4 16:2 20:2 29:4 38:1 39:1 40:1 72:1 253:0
0 1:4 2:4 3:2 4:6 6:3 7:4 8:2 10:4 14:1 15:2 20:1 22:1 23:1 24:1 25:2 37:1 42:2 43:1 44:2 45:1 102:1 103:1 253:0
0 4:3 5:1 9:4 10:2 11:6 15:2 16:1 20:1 22:1 23:1 24:1 253:0
0 1:12 2:12 4:10 5:4 6:4 9:5 10:11 11:6 23:1 24:1 28:1 253:0
0 1:6 2:6 4:5 5:4 6:2 9:2 10:3 11:1 15:3 16:1 20:5 33:4 34:2 55:1 253:0
0 1:14 2:13 3:4 7:3 8:3 9:2 11:1 26:4 27:2 29:4 253:0
0 1:21 2:30 4:4 5:4 6:2 9:2 10:3 11:1 15:2 20:2 253:0
0 1:12 2:12 4:6 5:7 6:4 9:6 10:1 11:6 15:3 16:1 20:3 22:1 23:1 24:1 33:4 34:2 253:0
0 1:6 2:6 4:4 5:2 6:2 9:1 10:2 27:3 38:1 40:1 72:1 76:3 104:3 253:0
0 1:6 2:6 4:8 6:4 10:8 15:1 20:1 22:1 23:1 24:1 253:0
0 1:7 2:6 3:6 4:3 6:2 7:4 8:2 15:3 16:1 20:3 22:1 23:1 24:1 25:2 74:2 105:4 253:0
0 1:6 2:6 4:2 5:3 9:6 11:4 12:1 13:1 26:4 27:2 29:2 35:1 38:1 39:2 40:1 253:0
0 1:18 2:18 3:5 4:4 5:1 6:6 7:4 8:2 9:1 10:2 66:2 253:0
0 1:2 2:1 3:2 4:5 5:2 6:2 7:4 8:2 9:4 10:1 11:3 12:2 13:1 15:2 16:1 20:1 22:1 23:2 25:2 28:1 29:1 36:1 37:1 41:1 62:2 93:1 106:1 107:1 108:1 109:1 253:0
0 4:25 5:8 9:8 10:35 11:7 23:3 24:2 28:4 35:1 253:0
0 1:6 2:6 4:3 5:1 6:2 9:1 14:2 15:4 16:2 20:3 23:1 24:1 28:1 253:0
0 1:12 2:12 4:6 5:3 6:4 9:3 10:3 11:3 23:1 24:1 62:2 93:1 107:2 109:1 253:0
0 1:6 2:6 4:14 5:9 6:4 9:10 10:12 11:8 15:1 20:1 22:1 23:3 24:3 28:2 29:2 253:0
0 1:6 2:6 4:11 5:1 6:2 9:3 10:13 11:3 15:2 16:1 20:4 22:1 23:1 24:1 253:0
0 1:6 2:6 4:6 5:5 6:2 9:4 10:4 11:3 15:4 16:2 20:4 38:1 39:1 40:1 55:1 72:1 253:0
0 1:14 2:13 3:2 4:4 5:2 6:7 7:2 9:4 10:1 11:3 25:1 66:1 94:2 95:1 96:1 253:0
0 1:15 2:14 3:7 4:5 5:4 6:4 7:6 8:2 9:3 10:5 11:1 23:1 24:1 28:1 29:2 33:2 34:1 62:2 63:2 64:4 65:1 66:1 92:1 93:1 94:2 95:1 96:1 110:1 253:0
0 1:16 2:15 3:6 4:3 5:2 6:4 7:6 8:3 9:3 10:1 11:1 23:2 24:3 26:4 27:2 28:1 29:2 33:2 34:1 37:1 66:2 253:0
0 1:12 2:12 4:8 5:5 6:6 9:6 10:6 11:4 14:4 15:4 16:2 23:1 24:1 28:1 29:2 38:1 40:1 72:2 253:0
0 1:12 2:12 4:13 5:9 6:8 9:7 10:8 11:6 14:4 15:4 16:2 20:1 23:1 24:1 28:1 38:1 40:1 72:2 253:0
0 1:6 2:6 4:10 5:1 6:2 9:1 10:8 14:6 15:6 16:3 20:1 23:1 24:1 28:1 253:0
0 1:12 2:12 4:5 6:4 10:1 12:2 13:1 14:6 15:8 16:3 20:5 22:2 23:3 24:4 54:1 253:0
0 1:6 2:6 4:3 5:2 6:2 9:1 10:2 14:2 15:3 16:1 20:1 22:1 23:1 24:1 34:1 111:1 253:0
0 1:15 2:17 3:2 4:4 6:6 7:2 8:1 10:1 14:8 15:8 16:4 25:2 87:2 88:1 253:0
0 4:5 9:2 10:5 15:4 16:2 20:4 22:2 23:2 28:2 32:2 253:0
0 1:6 2:6 4:14 5:4 6:4 9:3 10:14 11:3 12:3 13:2 14:4 15:6 16:3 20:6 22:2 23:2 24:2 253:0
0 4:10 10:8 12:3 13:1 15:5 16:1 20:9 22:1 23:2 24:2 253:0
0 1:6 2:6 4:7 5:4 6:2 9:6 10:6 11:6 253:0
0 1:9 2:10 3:3 4:6 5:4 7:2 8:1 9:4 10:4 11:2 14:2 15:2 16:1 29:2 253:0
0 1:6 2:6 4:5 5:4 6:2 7:4 8:1 9:8 10:1 11:6 25:4 29:2 35:1 37:2 38:1 39:2 40:1 66:1 94:2 95:1 96:1 253:0
0 1:6 2:6 4:14 5:3 6:4 9:5 10:8 11:4 12:8 13:3 15:6 16:3 20:8 22:3 23:3 24:3 41:2 253:0
0 1:6 2:6 4:8 5:5 6:2 9:7 10:5 11:3 14:2 15:2 16:1 20:2 35:1 38:1 39:2 40:1 253:0
0 1:14 2:15 3:3 4:5 5:6 6:5 7:2 8:1 9:7 10:1 11:6 15:2 16:1 20:1 22:1 23:1 24:1 25:1 29:2 66:2 253:0
0 1:12 2:12 4:5 5:1 6:6 9:3 10:2 11:3 12:3 13:1 14:2 15:2 16:1 20:1 253:0
0 1:6 2:6 4:4 5:2 6:2 9:1 10:2 14:2 15:3 16:1 20:2 22:1 23:1 24:1 253:0
0 1:12 2:12 4:8 5:3 6:4 9:2 10:6 11:1 15:4 16:2 20:7 55:1 253:0
0 1:4 2:3 3:2 4:4 5:3 7:2 8:1 9:4 10:1 11:2 12:2 13:1 14:1 15:2 16:1 23:1 24:1 28:1 29:2 34:2 103:1 112:4 113:1 253:0
0 1:8 2:7 3:1 4:7 5:3 6:4 7:1 9:3 10:4 11:3 15:1 17:1 19:1 20:2 21:1 25:1 69:1 70:1 71:1 253:0
0 1:6 2:6 4:3 5:2 9:2 10:2 11:1 14:4 15:4 16:2 20:4 33:2 34:1 253:0
0 1:9 2:9 3:5 4:8 6:5 7:6 8:3 9:1 10:7 23:1 24:2 25:3 37:1 66:2 253:0
0 1:10 2:9 3:2 4:1 5:1 7:2 8:1 9:3 14:2 15:2 16:1 20:1 29:4 38:1 39:1 40:1 72:1 88:1 114:2 253:0
0 4:24 10:35 12:3 13:1 15:3 16:1 20:6 22:1 23:3 24:5 34:1 112:3 253:0
0 1:13 2:12 3:2 4:4 5:1 6:4 7:4 8:2 9:1 10:2 15:2 16:1 20:3 33:6 34:3 37:1 62:2 66:2 92:2 93:1 107:2 253:0
0 1:6 2:6 4:6 5:5 9:4 10:4 11:2 14:4 15:5 16:2 20:4 23:1 24:1 28:1 253:0
0 1:12 2:12 4:7 5:3 6:4 9:3 10:7 11:3 14:2 15:2 16:1 20:1 22:1 23:1 24:1 253:0
0 1:11 2:14 4:4 5:3 9:2 10:2 11:1 14:2 15:3 16:1 20:3 253:0
0 1:6 2:6 4:2 5:1 6:4 9:1 23:1 24:1 28:1 50:1 77:1 78:3 79:3 81:3 253:0
0 1:9 2:10 3:3 4:2 5:4 7:2 8:1 9:5 11:4 29:1 36:1 253:0
0 4:8 5:2 7:4 8:1 9:1 10:7 25:2 37:2 66:2 94:2 95:1 253:0
0 4:23 10:33 12:3 13:1 15:1 20:3 23:1 24:2 253:0
0 1:8 2:7 3:2 4:2 6:4 7:2 9:3 11:1 15:1 20:1 23:1 25:2 28:2 29:2 35:1 66:1 94:2 95:1 96:1 253:0
0 1:12 2:12 4:5 5:3 6:2 9:6 10:2 11:6 14:2 15:4 16:2 20:3 22:1 23:2 24:2 26:2 27:1 28:1 29:2 62:2 92:2 93:1 107:2 253:0
0 1:8 2:4 3:8 4:6 5:2 6:4 7:8 8:3 9:4 10:3 11:2 14:2 15:4 16:2 20:2 25:2 29:2 36:2 94:2 95:1 103:2 253:0
0 1:6 2:6 4:6 5:3 6:2 9:2 10:4 11:1 15:3 16:1 20:3 22:2 23:2 24:2 62:2 93:1 100:1 107:2 253:0
0 1:2 2:1 3:2 4:5 6:3 7:2 9:3 10:4 11:1 25:1 29:1 36:1 66:1 94:2 95:1 96:1 253:0
0 1:6 2:6 4:5 5:4 6:2 9:4 11:6 14:6 15:8 16:4 20:2 22:1 23:1 24:1 253:0
0 1:6 2:6 4:3 5:2 6:2 9:2 10:1 26:2 27:1 62:2 74:1 93:1 97:1 107:3 115:1 116:1 117:1 253:0
0 1:8 2:10 3:2 4:1 7:2 9:2 15:2 16:1 20:1 22:1 23:1 28:1 29:1 32:1 36:1 88:1 94:2 95:1 114:2 253:0
0 1:12 2:12 4:5 5:2 6:4 9:6 10:3 11:6 23:1 24:2 29:4 253:0
0 4:16 5:6 9:4 10:15 11:6 15:2 16:1 20:3 22:1 23:1 24:1 253:0
0 1:12 2:12 4:5 5:7 6:2 9:11 10:1 11:10 23:2 24:1 26:2 27:1 28:3 29:4 35:1 253:0
0 1:6 2:6 4:8 5:5 6:2 9:5 10:4 11:2 15:2 16:1 20:2 22:1 23:3 24:3 28:2 29:2 39:1 40:1 72:1 118:1 119:1 253:0
0 1:6 2:6 3:4 7:4 8:2 37:1 253:0
0 1:12 2:12 4:1 5:1 9:3 23:1 24:1 28:1 29:4 58:1 59:1 60:1 61:2 62:3 63:4 64:6 65:2 92:6 93:1 253:0
0 1:12 2:12 4:9 5:5 6:6 9:6 10:4 11:7 23:1 24:1 28:1 29:2 253:0
0 4:2 10:1 15:2 20:3 22:1 23:1 24:1 50:1 51:3 52:3 53:3 82:1 253:0
0 1:6 2:6 4:6 5:4 6:2 9:4 10:2 11:6 14:6 15:8 16:4 20:2 22:1 23:1 24:1 253:0
0 1:6 2:6 4:5 5:4 6:2 9:2 10:3 11:1 14:4 15:2 23:1 24:2 253:0
0 4:11 5:3 9:6 10:9 11:7 12:1 13:1 23:1 24:1 28:1 253:0
0 4:24 5:1 9:1 10:33 12:3 13:1 15:8 16:4 20:12 55:2 253:0
0 4:14 5:4 9:8 10:17 11:12 253:0
0 1:6 2:6 4:26 6:4 10:40 12:5 13:2 15:2 20:3 23:2 24:4 34:1 112:3 253:0
0 1:6 2:6 4:5 5:4 9:7 10:3 11:5 12:2 13:1 23:1 24:1 28:1 29:2 41:2 62:1 63:2 64:2 65:1 84:1 85:1 86:2 88:1 100:1 114:4 253:0
0 1:6 2:6 4:11 5:1 6:2 9:4 10:14 11:6 12:2 13:1 15:3 16:1 20:5 22:1 23:1 24:1 253:0
0 1:12 2:12 26:8 27:4 67:4 68:2 120:1 253:0
0 4:7 5:4 9:12 10:4 11:14 15:4 16:2 20:2 22:2 23:2 28:2 32:2 253:0
0 1:6 2:6 4:8 5:6 6:2 7:2 9:5 10:3 11:4 12:3 13:1 15:2 20:3 22:1 23:3 24:3 25:1 28:2 41:1 43:1 44:2 45:2 62:4 93:2 94:2 95:1 100:1 102:1 107:3 110:1 121:1 253:0
0 1:11 2:11 3:5 4:6 5:5 6:7 7:4 8:1 9:7 10:1 11:3 15:1 20:1 23:1 24:2 25:1 29:2 66:1 94:2 95:1 96:1 253:0
0 1:6 2:6 4:4 5:2 6:2 9:2 10:2 11:1 14:2 15:2 20:1 22:1 23:2 24:2 26:2 27:1 28:1 253:0
0 1:12 2:12 4:11 5:7 6:2 9:5 10:8 11:4 14:2 15:2 16:1 20:2 23:1 24:1 28:1 253:0
0 1:12 2:12 4:4 6:6 9:1 10:2 15:1 20:1 22:1 23:2 24:3 29:2 253:0
0 1:8 2:7 3:2 4:2 6:4 7:4 8:2 9:3 10:1 14:4 15:4 16:2 29:3 36:3 37:1 253:0
0 1:10 2:9 3:6 4:1 6:2 7:6 8:3 14:2 15:2 16:1 25:2 37:1 62:2 63:1 64:2 92:2 93:1 253:0
0 4:10 5:14 9:14 10:2 11:18 15:2 20:4 27:2 76:2 253:0
0 1:6 2:6 4:6 5:5 6:2 9:2 10:5 11:1 14:4 15:5 16:2 20:2 253:0
0 4:2 5:1 9:4 11:6 15:2 16:1 20:2 34:1 112:1 253:0
0 1:12 2:12 4:5 5:3 6:4 9:3 10:3 11:1 14:4 15:4 16:1 20:2 29:2 58:1 59:1 60:1 61:2 62:1 63:2 64:2 65:1 253:0
0 1:6 2:6 4:13 5:3 6:2 9:4 10:14 11:6 12:2 13:1 15:2 16:1 20:4 253:0
0 1:6 2:6 4:11 5:10 6:2 9:8 10:6 11:7 15:2 16:1 20:2 22:1 23:3 24:3 28:2 62:2 93:1 100:1 107:4 253:0
0 1:12 2:12 3:4 4:5 6:4 7:4 8:2 9:1 10:2 12:3 13:1 36:2 37:1 59:1 60:1 61:2 62:1 63:2 64:2 65:1 107:2 122:2 253:0
0 1:6 2:6 4:12 5:2 6:2 9:2 10:11 11:1 15:3 16:1 20:5 22:1 23:1 24:1 118:2 119:1 253:0
0 1:6 2:6 4:6 5:5 6:2 9:5 10:4 11:2 15:3 16:1 20:4 22:1 23:2 24:1 28:2 33:2 34:1 35:1 253:0
0 1:6 2:6 4:5 5:2 6:4 9:6 10:2 11:4 23:1 28:2 29:2 35:1 38:1 39:1 40:1 72:1 253:0
0 1:6 2:6 4:4 5:4 6:2 9:8 11:7 15:2 16:1 20:2 23:2 24:2 28:2 29:6 34:3 47:1 48:1 49:2 50:1 51:2 52:2 53:1 112:3 113:3 123:1 253:0
0 1:12 2:12 4:2 5:2 6:4 9:2 11:1 14:2 15:1 23:1 24:1 28:1 30:6 31:3 253:0
0 1:7 2:6 3:2 4:4 5:2 6:4 7:4 8:2 9:4 11:3 15:2 16:1 20:2 22:1 23:2 24:2 25:2 26:2 27:1 28:1 29:2 37:1 66:2 253:0
0 4:3 5:2 9:1 10:1 15:4 16:2 20:4 31:1 55:1 74:1 97:1 115:1 116:1 117:1 124:2 125:1 253:0
0 1:9 2:10 3:3 4:3 5:2 6:2 7:2 8:1 9:3 11:1 14:4 15:6 16:3 20:2 22:1 23:2 24:2 28:1 29:1 36:1 38:1 39:1 40:1 72:1 253:0
0 1:16 2:15 3:2 4:3 6:5 7:2 8:1 10:3 14:4 15:2 25:1 50:2 51:6 52:6 53:6 82:2 253:0
0 1:12 2:12 4:5 5:3 6:6 9:2 10:3 11:1 14:6 15:3 253:0
0 1:8 2:7 3:2 4:6 5:7 6:2 7:4 8:2 9:8 10:2 11:7 23:1 24:1 28:1 36:2 37:1 58:2 59:1 60:1 61:2 62:1 63:2 64:2 65:1 92:2 253:0
0 1:3 2:2 4:2 5:2 6:1 9:2 11:1 23:1 24:1 28:1 42:2 43:1 44:2 62:1 63:2 64:2 65:1 84:1 85:1 86:2 102:1 107:1 253:0
0 1:12 2:12 4:7 5:3 6:4 9:4 10:6 11:3 23:1 24:1 26:2 27:1 28:1 29:2 33:2 34:1 38:1 40:1 72:2 253:0
0 4:12 5:1 9:3 10:11 11:3 15:1 20:1 23:1 24:1 28:1 253:0
0 1:12 2:12 3:2 4:2 5:3 6:1 7:2 8:1 9:6 11:6 17:3 18:1 19:2 21:1 29:1 36:1 253:0
0 1:9 2:8 4:6 5:5 6:1 9:4 10:4 11:2 14:2 15:3 16:1 17:2 18:1 19:2 20:3 21:1 23:1 24:1 28:1 29:2 253:0
0 1:8 2:7 3:2 4:8 5:7 6:3 7:2 9:6 10:5 11:4 15:1 20:1 22:1 23:3 24:3 25:1 26:4 27:2 28:2 29:2 62:2 66:1 93:1 94:2 95:1 96:1 100:1 107:4 253:0
0 1:12 2:12 4:8 5:3 6:6 9:2 10:6 11:1 14:2 15:3 16:1 20:5 23:2 24:3 28:1 33:2 34:1 253:0
0 1:12 2:12 4:6 5:2 6:2 9:5 10:8 11:4 29:4 253:0
0 1:8 2:9 3:3 4:10 5:5 6:2 7:2 8:1 9:5 10:10 11:2 23:3 24:3 28:3 74:1 97:1 253:0
0 1:4 2:3 3:2 4:3 5:1 6:2 7:2 8:1 9:1 10:1 15:1 20:1 22:1 23:2 24:2 28:1 40:1 72:2 88:1 89:1 114:1 253:0
0 1:12 2:12 4:9 5:6 6:4 9:6 10:3 11:6 12:4 13:1 14:4 15:4 16:2 20:2 22:1 23:1 24:1 26:2 27:1 253:0
0 1:11 2:8 3:4 4:7 5:6 6:3 7:4 8:2 9:6 10:4 11:6 17:2 18:1 19:2 21:1 23:1 24:1 28:1 29:1 36:1 253:0
0 1:6 2:6 4:5 5:2 6:2 9:3 10:3 11:1 15:2 16:1 20:2 22:1 23:1 24:1 29:2 253:0
0 1:6 2:6 4:8 5:1 6:4 9:2 10:6 11:1 12:3 13:1 15:1 20:1 23:1 24:1 28:1 29:2 34:3 54:1 90:1 91:1 112:3 113:3 253:0
0 1:6 2:6 4:4 5:3 6:2 9:2 10:2 11:1 14:4 15:3 20:2 253:0
0 1:9 2:8 4:9 5:9 6:3 9:6 10:6 11:4 14:2 15:2 17:2 18:1 19:2 20:1 21:1 22:1 23:3 24:3 28:2 38:1 40:1 62:2 72:1 93:1 100:1 107:4 253:0
0 68:3 126:3 253:0
0 1:14 2:15 3:3 4:6 5:5 6:3 7:2 8:1 9:6 10:1 11:6 14:4 15:6 16:3 20:2 22:1 23:1 24:1 25:1 29:2 253:0
0 1:1 3:2 4:9 5:3 6:1 7:4 8:2 9:7 10:10 11:6 23:2 24:1 25:1 28:3 29:1 35:1 36:3 37:1 253:0
0 1:12 2:12 4:1 9:4 14:2 15:2 16:1 20:1 29:8 127:2 128:1 253:0
0 1:8 2:7 3:2 4:5 5:7 6:2 7:4 8:2 9:8 10:1 11:7 23:1 24:1 28:1 36:2 37:1 58:2 59:1 60:1 61:2 62:1 63:2 64:2 65:1 92:2 253:0
0 1:15 2:14 4:1 5:1 6:1 9:2 11:1 14:4 15:2 16:1 17:2 18:1 19:2 21:1 29:2 59:1 60:1 61:2 62:2 63:4 64:4 65:2 84:1 85:1 86:2 92:4 253:0
0 1:12 2:12 4:5 5:3 9:3 10:3 11:3 14:4 15:6 16:3 20:4 22:1 23:1 24:1 26:4 27:2 55:1 253:0
0 1:6 2:6 4:2 5:1 9:4 11:3 12:3 13:2 23:1 24:1 28:1 29:4 41:1 253:0
0 1:12 2:12 4:4 5:1 6:4 9:4 10:3 11:6 15:3 16:1 20:5 22:1 23:1 24:1 253:0
0 1:15 2:17 3:2 4:2 6:3 7:2 8:1 10:1 14:8 15:4 25:1 253:0
0 4:5 5:1 9:1 10:1 12:2 13:1 15:4 16:1 20:4 22:1 23:1 24:1 51:2 53:1 54:1 77:1 78:1 80:2 82:2 129:2 130:1 131:1 253:0
0 1:6 2:4 3:4 4:5 5:1 6:3 7:6 8:3 9:2 10:2 25:3 29:1 36:1 37:1 66:2 253:0
0 1:10 2:9 3:6 4:5 5:1 6:4 7:6 8:3 9:2 10:6 11:1 23:1 24:1 25:2 28:1 29:2 37:1 253:0
0 1:9 2:8 3:2 4:5 5:2 6:3 7:2 9:3 10:3 11:3 15:1 20:2 25:1 26:2 27:1 29:1 36:1 94:2 95:1 253:0
0 4:5 5:4 9:2 10:5 15:1 20:1 22:1 23:1 24:1 34:2 112:2 113:1 253:0
0 1:12 2:12 4:4 5:2 6:8 9:2 12:2 13:1 39:2 40:2 72:2 253:0
0 1:6 2:6 4:2 5:1 9:3 10:1 11:1 14:2 15:2 16:1 20:1 35:1 39:2 40:1 253:0
0 1:12 2:12 4:8 5:6 6:6 9:6 10:4 11:6 14:2 15:1 29:2 253:0
0 1:3 2:2 4:7 5:6 6:1 7:4 8:1 9:5 10:3 11:4 12:3 13:1 15:1 20:1 22:1 23:3 24:3 28:2 37:2 41:1 42:2 43:1 44:2 62:4 93:2 94:2 95:1 100:1 102:1 107:3 110:2 253:0
0 1:6 2:6 4:10 5:4 6:2 9:3 10:7 11:3 15:2 16:1 20:2 22:1 23:1 24:1 253:0
0 1:6 2:6 4:6 6:2 10:7 15:2 20:6 26:2 27:1 253:0
0 1:12 2:12 4:8 5:7 6:2 9:5 10:6 11:4 14:2 15:3 16:1 20:3 22:1 23:3 24:3 28:2 62:2 93:1 100:1 107:4 253:0
0 1:6 2:6 4:3 5:2 6:4 9:4 11:1 14:2 15:1 35:1 38:1 39:2 40:2 72:1 88:1 89:1 114:1 253:0
0 1:12 2:12 4:7 5:3 6:4 9:2 10:5 11:1 12:2 13:1 15:1 20:1 22:1 23:2 24:2 26:4 27:2 28:1 253:0
0 1:12 2:12 4:2 6:4 12:2 13:1 14:10 15:9 16:4 253:0
0 1:6 2:6 4:3 6:2 10:1 14:2 15:3 16:1 20:2 22:1 23:1 24:1 253:0
0 1:6 2:6 4:8 6:6 10:4 14:4 15:3 16:1 20:1 253:0
0 4:13 5:1 9:1 10:11 15:2 16:1 20:2 253:0
0 1:7 2:6 3:2 4:6 5:2 6:4 7:4 8:2 9:5 10:2 11:2 12:2 13:1 14:4 15:4 16:2 23:1 24:1 25:2 28:1 35:1 37:1 38:1 39:2 40:1 41:1 55:1 62:2 93:1 107:2 253:0
0 1:9 2:8 4:2 5:1 6:4 9:2 17:2 18:1 19:2 21:2 29:2 39:1 40:1 72:1 74:1 97:1 115:1 116:1 117:1 253:0
0 1:20 2:23 3:4 4:2 5:1 6:4 7:2 8:1 9:5 11:2 14:2 15:2 16:1 23:1 24:1 28:1 29:6 58:1 59:1 60:1 61:2 62:1 63:2 64:2 65:1 253:0
0 1:6 2:6 4:3 5:4 9:5 11:4 14:4 15:4 16:2 20:2 29:2 253:0
0 4:6 5:1 9:1 10:7 23:1 24:1 28:1 31:1 124:3 253:0
0 1:8 2:6 3:4 7:4 8:2 9:2 26:1 27:1 29:3 36:1 58:1 59:1 60:1 61:2 62:1 63:2 64:2 65:1 92:2 132:1 253:0
0 4:20 10:29 12:3 13:1 15:1 20:2 23:1 24:2 27:1 76:1 133:1 253:0
0 1:12 2:12 4:11 5:5 6:4 9:4 10:10 11:6 15:3 16:1 20:6 22:1 23:1 24:1 34:1 112:1 253:0
0 4:21 10:23 12:2 13:1 15:4 16:1 20:5 22:1 23:3 24:5 253:0
0 1:6 2:6 4:13 5:8 6:4 9:8 10:12 11:7 14:2 15:2 16:1 20:2 23:2 24:3 28:1 253:0
0 1:6 2:6 4:1 6:2 15:1 20:1 22:1 23:1 24:1 57:2 59:1 60:1 61:2 62:1 63:2 64:2 65:1 92:2 134:2 135:1 253:0
0 1:12 2:12 3:4 4:4 6:4 7:4 8:2 9:1 10:2 36:2 37:1 40:1 59:1 60:1 61:2 62:1 63:2 64:2 65:1 72:2 73:1 74:1 107:2 122:2 253:0
0 1:2 3:4 4:3 6:3 7:4 8:2 9:3 11:3 25:3 29:1 36:1 253:0
0 1:6 2:6 4:7 5:8 6:2 9:8 10:4 11:7 23:3 24:3 26:2 27:1 28:3 253:0
0 1:11 2:9 3:4 4:4 6:4 7:6 8:3 9:3 10:1 14:4 15:4 16:2 20:2 29:3 36:3 37:1 66:2 253:0
0 1:6 2:6 4:2 5:1 6:2 9:4 11:3 12:1 13:1 15:1 20:1 22:1 23:2 24:2 28:1 29:2 38:1 39:1 40:1 41:1 62:2 92:2 93:1 253:0
0 1:12 2:12 4:4 5:1 6:4 9:3 10:3 11:3 15:2 16:1 20:4 30:2 31:1 253:0
0 1:6 2:6 4:11 5:4 6:2 9:5 10:8 11:4 12:2 13:1 14:2 15:2 16:1 20:1 23:2 24:2 28:2 29:2 253:0
0 1:12 2:12 4:7 5:4 6:4 9:2 10:4 11:1 14:6 15:7 16:3 20:4 22:2 23:2 24:2 253:0
0 27:4 104:6 253:0
0 1:6 2:6 4:5 5:1 6:2 9:2 10:3 11:1 15:6 16:1 20:9 22:1 23:1 24:1 29:2 32:1 253:0
0 1:12 2:12 4:3 5:2 6:2 9:4 10:1 11:3 23:1 24:1 26:4 27:2 28:1 29:4 38:1 39:1 40:1 72:1 253:0
0 1:6 2:6 4:14 10:14 12:4 13:2 14:2 15:6 16:1 20:8 22:1 23:1 24:1 26:2 27:1 253:0
0 1:6 2:6 4:13 5:4 7:2 9:2 10:18 11:1 14:2 15:4 16:2 18:1 19:2 20:3 21:2 23:1 24:1 25:2 26:2 27:1 28:1 34:3 94:2 95:1 111:3 113:3 136:2 253:0
0 1:6 2:6 4:4 5:3 6:2 9:3 10:4 11:3 15:1 20:1 26:4 27:2 253:0
0 1:17 2:20 4:4 5:1 9:6 10:6 11:4 15:1 20:1 23:1 24:1 28:1 29:6 58:1 59:1 60:1 61:2 62:1 63:2 64:2 65:1 92:2 253:0
0 1:14 2:15 3:3 4:6 5:4 6:5 7:2 8:1 9:4 10:1 11:3 14:2 15:4 16:2 20:2 23:1 24:2 25:1 66:2 253:0
0 1:6 2:6 4:3 5:2 6:2 9:1 10:2 15:1 20:1 22:1 23:1 24:1 26:2 27:1 253:0
0 4:21 10:32 12:3 13:1 15:1 20:2 23:1 24:2 63:2 65:1 83:1 84:2 86:4 137:1 253:0
0 116:1 253:0
0 1:3 2:2 3:2 4:3 5:3 7:2 9:3 11:3 23:1 24:1 26:1 27:1 28:1 62:2 92:1 93:1 94:2 95:1 107:1 110:1 132:1 253:0
0 1:14 2:17 3:4 4:1 7:2 8:1 9:2 14:2 15:2 16:1 20:1 29:4 253:0
0 1:6 2:6 4:2 6:2 10:1 12:1 13:1 14:4 15:3 16:1 253:0
0 1:8 2:9 3:3 4:7 5:2 6:3 7:2 8:1 9:4 10:5 11:3 25:1 62:2 66:2 93:1 107:4 253:0
0 1:9 2:10 3:3 4:11 5:3 6:5 7:2 8:1 9:3 10:7 11:3 12:7 13:3 14:2 15:4 16:1 20:5 22:1 23:2 24:2 25:1 28:1 41:1 253:0
0 4:3 10:3 253:0
0 4:18 10:23 12:4 13:1 15:2 16:1 20:3 22:1 23:2 24:3 253:0
0 1:12 2:12 4:5 6:8 10:2 14:2 15:3 16:1 20:2 22:1 23:2 24:3 253:0
0 1:6 2:6 4:4 5:3 6:2 9:2 10:2 11:1 14:2 15:2 20:2 253:0
0 1:12 2:12 4:5 5:3 6:4 9:3 10:1 11:1 14:4 15:5 16:2 20:4 23:1 24:1 28:1 253:0
0 1:6 2:6 9:2 14:2 15:1 29:4 74:2 97:2 115:2 116:2 117:2 253:0
0 1:11 2:14 4:4 5:2 6:4 9:2 11:1 15:2 20:2 23:2 24:2 28:2 50:1 51:3 52:3 53:3 74:1 82:2 97:2 138:1 253:0
0 1:8 2:6 3:4 4:4 5:2 6:4 7:4 8:2 9:2 10:1 40:2 66:4 72:2 73:2 74:2 253:0
0 1:8 2:6 3:4 7:4 8:2 62:2 74:2 92:2 105:4 110:2 139:2 140:1 253:0
0 1:9 2:10 3:3 4:4 5:3 6:2 7:2 8:1 9:2 10:2 11:1 14:2 15:2 20:2 253:0
0 1:6 2:6 4:2 5:1 6:2 9:4 10:1 11:3 15:2 16:1 20:2 23:1 24:1 28:1 32:1 38:1 39:1 40:1 141:1 253:0
0 1:6 2:6 7:6 8:3 9:3 11:1 26:2 27:1 29:2 36:4 37:3 253:0
0 1:7 2:6 3:1 4:1 6:2 7:2 8:1 9:2 11:1 14:2 15:1 29:2 36:1 42:1 43:1 44:2 45:1 142:1 253:0
0 4:3 15:5 16:2 20:5 253:0
0 1:9 2:10 3:3 7:2 8:1 14:2 15:1 26:2 27:1 253:0
0 1:6 2:6 4:6 5:4 6:2 9:2 10:4 11:1 15:2 16:1 20:2 22:1 23:1 24:1 253:0
0 9:4 35:2 39:4 40:2 57:2 127:2 128:1 143:2 253:0
0 1:6 2:6 4:5 6:2 10:4 12:2 13:1 15:3 16:1 20:5 22:1 23:2 24:3 54:1 253:0
0 1:12 2:12 4:8 5:4 6:4 9:5 10:6 11:2 14:2 15:2 16:1 23:2 24:1 28:3 35:1 58:1 59:1 60:1 61:2 62:1 63:2 64:2 65:1 92:2 253:0
0 1:6 2:6 4:11 5:5 6:2 9:6 10:12 11:6 23:3 24:4 28:2 33:2 34:1 253:0
0 4:2 5:2 9:6 10:1 11:2 12:1 13:1 35:2 88:1 98:2 99:4 114:2 253:0
0 1:6 2:6 4:2 6:2 9:1 10:1 15:3 16:1 20:3 22:1 23:1 28:1 32:1 253:0
0 1:8 2:9 4:5 5:3 9:7 10:3 11:5 14:6 15:6 16:3 17:3 18:1 19:2 20:1 23:1 28:2 29:2 35:1 253:0
0 1:12 2:12 4:7 5:7 9:8 10:6 11:7 14:4 15:4 16:2 20:3 23:1 24:1 28:1 29:2 35:1 253:0
0 1:6 2:6 4:15 5:4 6:4 9:3 10:21 11:3 14:2 15:2 20:3 253:0
0 1:6 2:6 4:7 5:5 9:6 10:6 11:6 23:1 24:1 26:4 27:2 28:1 29:2 253:0
0 4:10 10:15 12:3 13:1 253:0
0 1:13 2:12 3:2 4:3 5:2 7:4 8:2 9:4 10:1 11:1 14:4 15:5 16:2 20:4 29:4 37:1 58:1 59:1 60:1 61:2 62:1 63:2 64:2 65:1 66:2 253:0
0 4:25 5:3 9:3 10:35 11:3 12:1 13:1 15:3 16:1 20:5 22:1 23:2 24:3 62:2 93:1 107:2 253:0
0 1:6 2:6 4:2 5:3 6:2 9:4 11:3 14:2 15:2 16:1 22:1 23:2 24:1 28:2 32:1 253:0
0 1:17 2:20 4:3 5:3 6:4 9:6 11:2 14:2 15:2 16:1 20:1 22:1 23:1 24:1 29:2 35:1 38:1 39:3 40:2 72:1 253:0
0 4:11 5:9 9:6 10:9 11:4 15:2 20:2 22:2 23:4 24:4 28:2 62:2 93:1 100:1 107:4 253:0
0 1:9 2:10 3:3 4:1 6:1 7:2 8:1 14:2 15:1 25:1 30:4 31:2 253:0
0 4:5 5:3 7:2 9:4 10:2 11:3 12:3 13:1 25:2 37:1 94:2 95:3 96:2 144:2 253:0
0 4:6 5:2 9:4 10:8 11:2 12:2 13:2 23:3 24:2 28:4 35:1 253:0
0 1:10 2:9 3:2 4:6 5:1 6:5 7:2 8:1 9:3 10:3 11:3 12:2 13:1 15:1 20:1 22:1 23:2 24:3 25:1 29:1 36:1 41:1 253:0
0 1:6 2:6 4:4 6:2 10:1 15:2 20:2 40:1 51:3 53:3 72:2 73:1 74:1 82:2 90:1 91:1 129:3 130:1 138:1 253:0
0 1:12 2:12 4:3 6:4 10:1 14:2 15:3 16:1 20:3 22:1 23:1 24:1 26:2 27:1 34:3 112:3 113:3 253:0
0 1:12 2:12 4:4 5:4 6:6 9:3 10:1 11:1 23:1 24:1 26:2 27:1 28:1 59:1 60:1 61:2 62:1 63:2 64:2 65:1 88:1 92:2 114:3 253:0
0 1:4 2:3 3:2 7:2 8:1 9:3 11:3 14:2 15:4 16:1 22:1 23:1 26:2 27:1 28:1 29:1 32:1 36:1 50:1 51:2 52:2 53:1 62:1 82:2 100:1 145:1 146:1 147:2 148:1 253:0
0 1:6 2:6 4:11 5:4 6:2 9:8 10:12 11:7 14:2 15:2 16:1 22:1 23:1 28:1 29:2 32:1 35:1 253:0
0 4:21 10:32 12:3 13:1 15:2 20:4 253:0
0 1:12 2:12 4:7 5:3 6:4 9:3 10:5 11:3 15:1 20:3 118:2 119:1 253:0
0 1:16 2:15 3:2 4:4 5:2 6:5 7:2 8:1 9:4 11:3 12:2 13:1 23:1 24:1 25:1 28:1 29:4 38:1 39:1 40:1 72:1 253:0
0 1:7 2:6 3:2 4:4 5:1 7:4 8:2 9:1 10:2 14:4 15:4 16:2 20:3 25:2 37:1 66:2 253:0
0 1:6 2:6 4:5 5:4 6:2 9:2 10:4 11:1 14:4 15:3 20:2 253:0
0 1:12 2:12 4:2 6:4 10:1 14:4 15:3 16:1 23:1 24:2 62:1 63:2 64:2 65:1 84:1 85:1 86:2 92:2 253:0
0 4:9 5:3 9:1 10:14 15:2 20:2 22:2 23:2 24:2 253:0
0 4:22 10:33 12:3 13:1 23:2 24:4 118:1 119:1 253:0
0 1:12 2:12 4:9 6:6 10:9 14:2 15:4 16:1 20:4 22:1 23:1 24:1 253:0
0 1:12 2:12 4:6 5:3 9:7 10:4 11:5 15:4 16:2 20:3 22:2 23:2 28:2 29:4 32:2 253:0
0 1:9 2:8 3:2 4:9 5:8 6:6 7:2 8:1 9:9 10:1 11:5 14:2 15:2 16:1 20:1 23:1 24:1 28:1 29:1 36:1 38:1 39:1 40:1 58:2 59:1 60:1 61:2 62:1 63:2 64:2 65:1 66:2 72:1 92:2 253:0
0 1:1 3:2 4:5 5:2 6:1 7:4 8:2 9:5 10:4 11:1 15:2 20:2 23:1 24:1 25:1 28:1 29:1 35:1 36:1 37:1 38:1 39:2 40:1 66:2 253:0
0 4:24 10:35 12:5 13:2 15:4 16:1 20:7 22:1 23:3 24:5 34:3 112:7 113:1 253:0
0 1:12 2:12 4:5 5:1 6:6 9:1 10:3 15:2 16:1 20:4 33:2 34:1 253:0
0 1:12 2:12 4:5 5:6 6:4 9:6 10:2 11:6 26:2 27:1 253:0
0 1:12 2:12 4:2 6:2 14:6 15:8 16:4 20:4 22:1 23:1 24:1 55:3 253:0
0 1:8 2:9 3:3 4:6 5:3 6:2 7:2 8:1 9:3 10:3 11:3 12:3 13:1 26:2 27:1 253:0
0 1:6 2:6 4:5 5:2 6:2 9:3 10:2 11:1 14:2 15:2 16:1 20:1 23:1 24:1 28:1 29:2 118:1 119:1 253:0
0 1:8 2:10 3:2 4:5 5:3 7:2 9:5 10:3 11:4 14:4 15:6 16:3 20:2 22:1 23:1 28:1 29:1 32:1 36:1 94:2 95:1 253:0
0 1:8 2:9 3:3 4:1 5:2 7:2 8:1 9:3 11:1 38:1 39:1 40:1 62:2 92:2 93:1 100:1 149:1 253:0
0 1:6 2:6 4:11 5:1 6:6 9:2 10:6 11:1 12:5 13:2 15:4 16:2 20:4 22:1 23:3 24:4 28:1 29:2 54:2 253:0
0 1:12 2:12 4:5 5:4 6:4 7:4 8:1 9:7 10:1 11:4 23:3 24:4 25:4 26:4 27:2 28:2 29:2 37:2 66:1 94:2 95:1 96:1 253:0
0 4:4 10:2 15:4 20:6 22:2 23:2 24:2 46:4 47:2 48:2 49:2 50:1 51:1 52:1 150:1 151:2 253:0
0 1:12 2:12 4:5 5:4 6:2 9:2 10:3 11:1 14:2 15:4 16:1 20:4 253:0
0 1:6 2:6 4:6 5:4 6:2 9:4 10:5 11:3 23:1 24:1 28:1 38:1 39:1 40:1 72:1 253:0
0 1:12 2:12 4:3 5:1 6:2 9:2 10:1 14:2 15:2 16:1 20:2 23:1 24:1 28:1 29:2 58:1 59:1 60:1 61:2 62:1 63:2 64:2 65:1 92:2 253:0
0 1:9 2:8 4:13 5:5 6:4 9:5 10:8 11:4 12:6 13:2 15:4 16:2 17:2 18:1 19:2 20:3 21:2 22:2 23:2 24:2 33:2 34:1 41:2 253:0
0 1:6 2:6 4:9 5:2 6:2 9:3 10:9 11:3 15:2 16:1 20:4 22:1 23:1 24:1 253:0
0 1:8 2:7 3:6 4:8 5:8 7:6 8:2 9:8 10:2 11:6 15:2 16:1 20:2 25:2 37:1 66:3 94:2 95:1 96:1 253:0
0 4:4 10:2 12:4 13:2 15:4 20:4 23:2 24:4 54:4 253:0
0 1:9 2:8 4:2 6:2 9:2 10:1 11:1 15:1 20:1 22:1 23:1 24:1 26:4 27:2 29:4 42:2 43:1 44:2 253:0
0 1:6 2:6 4:11 5:1 6:2 9:3 10:13 11:3 12:4 13:1 253:0
0 1:6 2:6 4:7 5:9 6:2 9:8 10:1 11:7 12:2 13:1 14:6 15:6 16:3 23:2 24:2 28:2 253:0
0 1:6 2:6 4:14 5:5 6:2 9:8 10:16 11:7 15:3 16:1 20:5 23:2 24:1 28:3 29:2 33:2 34:1 35:1 253:0
0 1:6 2:6 4:4 5:1 9:4 10:3 11:2 23:1 26:2 27:1 28:2 29:2 35:1 39:1 40:1 72:1 253:0
0 4:4 5:2 9:2 10:1 11:1 12:5 13:2 23:1 24:1 28:1 41:1 74:1 97:2 253:0
0 1:8 2:9 3:3 4:5 5:5 6:5 7:2 8:1 9:5 10:2 11:1 14:4 15:4 16:1 20:1 22:1 23:1 25:1 28:1 29:2 32:1 66:2 253:0
0 1:14 2:13 3:2 4:4 5:2 6:8 7:4 8:2 9:4 10:1 11:3 14:6 15:6 16:3 23:2 24:2 28:2 29:1 36:3 37:1 253:0
0 1:12 2:12 4:8 5:2 6:4 9:1 10:8 15:1 20:3 253:0
0 1:6 2:6 4:8 6:2 10:5 14:2 15:6 16:2 20:6 22:1 23:1 24:1 253:0
0 1:6 2:6 4:9 5:7 6:2 9:9 10:5 11:9 12:2 13:1 15:1 20:1 22:1 23:2 24:3 29:4 33:2 34:1 41:1 253:0
0 1:6 2:6 4:5 5:2 6:4 9:1 10:3 14:4 15:4 16:2 253:0
0 1:6 2:6 4:7 5:1 9:2 10:8 11:1 23:2 24:4 26:2 27:1 29:2 98:1 99:1 152:1 253:0
0 1:6 2:6 4:5 5:2 6:2 9:5 10:3 11:4 12:2 13:1 15:2 16:1 23:2 24:3 28:1 29:2 32:1 41:1 253:0
0 4:23 10:36 12:2 13:1 15:3 20:6 23:3 24:6 253:0
0 1:6 2:4 3:2 4:2 6:2 7:2 9:2 12:2 13:1 17:2 18:1 19:2 21:1 25:1 29:2 36:1 74:1 94:2 95:1 97:1 115:1 116:1 117:1 153:1 253:0
0 1:6 2:6 4:9 5:4 6:2 9:2 10:11 11:1 26:2 27:1 253:0
0 1:6 2:6 4:5 5:4 9:4 10:3 11:2 14:2 15:2 16:1 20:1 22:1 23:3 24:3 28:2 29:2 253:0
0 1:9 2:8 4:12 5:3 6:4 9:2 10:11 11:1 14:2 15:3 16:1 20:4 23:1 24:2 42:2 43:1 44:2 102:2 253:0
0 4:9 10:7 15:4 16:1 20:5 22:1 23:1 24:1 253:0
0 1:6 2:6 4:12 5:3 6:2 9:4 10:10 11:3 15:1 20:2 29:2 34:1 58:1 59:1 60:1 61:2 62:1 63:2 64:2 65:1 112:3 253:0
0 1:6 2:6 4:10 6:4 10:8 12:4 13:1 14:2 15:4 16:1 20:5 22:1 23:3 24:5 253:0
0 1:12 2:12 4:8 5:7 6:2 9:8 10:4 11:7 23:1 24:1 28:1 29:4 62:2 92:4 93:1 253:0
0 1:12 2:12 4:8 6:6 9:2 10:5 11:1 12:2 13:1 14:2 15:4 16:2 20:2 22:1 23:2 24:3 29:2 41:1 253:0
0 1:6 2:6 4:8 5:4 6:2 9:3 10:7 11:3 15:2 16:1 20:3 22:1 23:1 24:1 26:4 27:2 253:0
0 1:6 2:6 4:9 5:2 6:2 9:3 10:9 11:3 12:1 13:1 15:2 16:1 20:4 22:1 23:1 24:1 253:0
0 1:11 2:14 4:6 5:6 6:4 9:7 10:2 11:6 23:2 24:2 28:2 29:2 74:1 97:1 115:1 116:1 117:1 253:0
0 1:6 2:6 4:11 5:3 6:2 9:2 10:10 11:1 14:2 15:3 16:1 20:3 253:0
0 1:12 2:12 4:2 6:4 10:1 14:2 15:1 26:2 27:1 253:0
0 1:6 2:6 4:16 10:18 12:2 13:1 14:2 15:7 16:2 20:9 22:1 23:1 24:1 33:4 34:2 253:0
0 4:9 5:2 9:2 10:10 11:1 253:0
0 1:9 2:10 3:3 4:1 6:2 7:2 8:1 14:2 15:1 253:0
0 1:6 2:6 4:2 6:2 12:2 13:1 14:2 15:2 16:1 253:0
0 1:6 2:6 4:8 5:2 6:2 9:2 10:5 11:1 12:6 13:2 14:4 15:8 16:4 20:3 22:2 23:2 24:2 41:2 55:1 253:0
0 1:12 2:12 4:4 5:4 6:8 9:4 11:2 23:2 24:2 28:2 88:1 114:4 253:0
0 1:12 2:12 4:7 5:7 9:8 10:4 11:7 23:1 24:1 26:2 27:1 28:1 29:4 62:4 92:4 93:2 100:1 107:3 253:0
0 4:5 5:3 9:3 10:3 11:1 23:1 24:1 28:1 253:0
0 1:6 2:6 14:6 15:3 253:0
0 1:6 2:4 4:9 5:2 6:2 9:4 10:11 11:6 15:1 20:3 42:4 43:2 44:4 102:2 253:0
0 1:12 2:12 4:5 5:2 6:4 9:2 10:2 11:1 14:4 15:4 16:2 20:2 39:1 40:1 72:1 253:0
0 4:20 10:18 15:7 16:2 20:11 22:1 23:1 24:1 253:0
0 1:6 2:6 4:9 5:7 6:2 9:6 10:4 11:6 15:2 16:1 20:2 22:1 23:1 24:1 253:0
0 1:6 2:6 4:9 6:6 10:4 12:4 13:2 14:4 15:6 16:2 20:4 22:2 23:4 24:6 54:2 253:0
0 1:12 2:12 4:9 5:9 6:2 9:10 10:6 11:8 23:2 24:1 28:3 29:2 33:2 34:1 35:1 88:2 114:4 128:1 154:2 253:0
0 4:26 10:41 12:3 13:1 15:2 20:4 22:1 23:2 24:3 253:0
0 1:12 2:12 4:3 5:2 6:4 9:3 11:1 15:1 20:1 22:1 23:3 24:3 28:2 29:2 58:1 59:1 60:1 61:2 62:1 63:2 64:2 65:1 92:2 253:0
0 1:12 2:12 4:3 6:4 10:1 12:2 13:1 14:6 15:6 16:3 23:1 24:2 253:0
0 1:16 2:15 3:2 4:7 6:6 7:2 8:1 10:10 15:1 20:3 253:0
0 4:21 10:33 12:3 13:1 15:1 20:3 23:1 24:2 253:0
0 1:9 2:8 4:5 6:5 10:4 15:1 20:1 22:1 23:2 24:3 26:2 27:1 42:2 43:1 44:2 102:1 253:0
0 1:6 2:6 4:4 5:5 6:2 9:5 11:4 14:2 15:1 23:1 24:1 28:1 253:0
0 1:6 2:6 14:2 15:3 26:4 27:2 30:2 31:1 51:3 53:3 82:3 129:3 130:1 253:0
0 1:16 2:12 3:8 4:8 6:4 7:8 8:4 10:6 12:9 13:3 15:1 20:3 25:4 253:0
0 1:7 2:6 3:2 4:5 5:1 6:2 7:4 8:2 9:1 10:2 15:6 16:3 20:9 26:4 27:2 37:1 55:1 66:2 118:1 119:1 253:0
0 1:6 2:6 4:10 5:2 6:6 9:4 10:5 11:2 12:4 13:2 15:2 20:2 22:2 23:4 24:6 29:4 41:2 253:0
0 1:6 2:6 4:3 6:2 10:2 15:1 20:2 253:0
0 1:12 2:12 4:7 5:3 6:4 9:3 10:4 11:3 15:3 16:1 20:5 22:1 23:1 24:1 253:0
0 1:6 2:6 4:7 6:2 9:1 10:6 14:4 15:5 16:2 20:2 22:1 23:1 28:1 32:1 40:1 72:2 73:1 74:1 75:1 253:0
0 4:7 5:4 9:3 10:6 11:3 15:3 20:6 253:0
0 1:6 2:6 4:6 5:1 6:4 9:3 10:3 11:3 12:2 13:1 14:2 15:3 16:1 20:2 22:1 23:2 24:3 29:2 41:1 253:0
0 1:12 2:12 4:10 5:7 6:6 9:6 10:5 11:4 14:2 15:4 16:1 20:4 22:1 23:3 24:3 28:2 39:1 40:1 72:1 253:0
0 1:6 2:6 4:8 5:6 6:2 9:6 10:4 11:3 14:2 15:3 16:1 20:3 23:1 28:2 35:1 253:0
0 1:12 2:12 4:9 5:3 6:4 9:3 10:9 11:3 15:2 16:1 20:2 22:1 23:1 24:1 253:0
0 1:18 2:18 4:6 5:3 6:6 9:3 10:3 11:3 15:3 16:1 20:5 253:0
0 1:6 2:6 4:8 5:3 9:2 10:7 11:1 14:2 15:4 16:2 20:6 23:1 24:1 26:2 27:1 28:1 32:1 253:0
0 1:18 2:18 4:5 5:3 6:6 9:4 10:1 11:3 23:1 24:1 26:4 27:2 28:1 29:2 38:1 40:1 62:2 63:2 64:4 65:1 72:2 92:2 93:1 107:1 253:0
0 1:6 2:6 4:13 5:4 6:4 9:3 10:16 11:3 14:4 15:6 16:2 20:6 23:1 24:2 253:0
0 1:6 2:6 4:5 5:2 9:4 10:4 11:1 23:1 26:2 27:1 28:2 35:1 58:1 59:1 60:1 61:2 62:1 63:2 64:2 65:1 88:1 92:2 114:3 253:0
0 1:4 2:2 3:2 4:2 6:2 7:4 8:1 9:2 12:2 13:1 17:2 18:1 19:2 21:1 25:1 29:1 36:2 37:1 74:1 94:2 95:1 97:1 115:1 116:1 117:1 153:1 253:0
0 4:21 10:31 12:7 13:3 23:2 24:4 27:1 76:1 133:1 253:0
0 1:6 2:6 4:14 5:1 6:2 9:3 10:22 11:3 15:2 16:1 20:4 253:0
0 1:12 2:12 4:6 5:6 6:4 9:5 10:3 11:4 14:2 15:2 16:1 23:1 24:1 28:1 33:2 34:1 59:1 60:1 61:2 62:1 63:2 64:2 65:1 92:2 253:0
0 1:6 2:6 4:5 5:3 9:3 10:1 11:3 14:4 15:7 16:3 20:5 253:0
0 1:12 2:12 4:9 5:3 6:4 9:3 10:8 11:3 15:4 16:2 20:4 22:1 23:1 24:1 253:0
0 1:12 2:12 4:9 5:6 6:4 9:5 10:9 11:4 23:1 24:1 28:1 253:0
0 1:12 2:12 4:10 5:4 6:8 9:3 10:6 11:3 12:4 13:1 253:0
0 1:12 2:12 4:7 5:1 6:4 9:3 10:6 11:3 12:2 13:1 15:2 16:1 20:4 22:1 23:1 24:1 253:0
0 1:3 2:2 4:2 5:2 6:1 9:7 11:4 17:2 18:1 19:2 21:1 23:1 28:2 29:1 35:1 40:1 72:1 74:1 88:1 89:1 97:1 114:2 115:1 116:1 117:1 153:1 253:0
0 1:2 2:1 3:2 4:3 6:1 7:4 8:2 9:3 11:3 14:1 15:3 20:2 25:1 36:2 37:1 51:3 53:3 82:3 103:1 129:3 130:1 253:0
0 1:12 2:12 4:8 5:6 6:6 9:5 10:4 11:4 12:2 13:1 14:4 15:5 16:2 20:3 23:1 24:1 28:1 41:1 253:0
0 4:22 10:24 12:2 13:1 15:5 16:1 20:7 22:1 23:1 24:1 118:2 119:1 253:0
0 1:5 2:3 3:5 4:5 5:2 6:2 7:5 8:4 9:2 10:2 11:1 12:6 13:2 23:1 24:1 28:1 37:1 41:1 90:1 91:1 253:0
0 1:12 2:12 3:2 4:7 5:2 6:4 7:2 8:1 9:2 10:3 11:1 14:2 15:4 16:1 20:2 42:2 43:1 44:2 45:1 62:2 63:2 64:4 65:1 93:1 103:1 107:2 155:1 253:0
0 1:9 2:8 4:5 5:5 6:5 9:7 10:1 11:6 26:2 27:1 29:2 38:1 39:1 40:1 42:2 43:1 44:2 72:1 102:1 253:0
0 1:11 2:14 4:3 5:3 6:2 9:3 10:1 11:1 26:2 27:1 38:1 39:1 40:1 72:1 253:0
0 1:12 2:12 4:6 6:4 9:2 10:3 12:8 13:3 29:4 40:1 72:2 253:0
0 1:4 2:3 3:2 4:12 5:6 6:1 7:2 8:1 9:4 10:13 11:3 23:1 24:1 25:1 28:1 253:0
0 1:18 2:18 4:6 5:1 6:8 9:2 10:1 11:1 14:6 15:6 16:2 20:4 22:1 23:2 24:2 28:1 29:2 33:2 34:1 253:0
0 1:6 2:6 4:8 5:3 6:2 9:4 10:2 11:3 14:2 15:6 16:3 20:5 22:1 23:1 24:1 29:2 253:0
0 1:6 2:6 4:20 5:10 6:2 9:8 10:30 11:7 12:1 13:1 14:4 15:5 16:2 20:6 23:1 24:1 28:1 29:2 54:1 253:0
0 1:7 2:5 3:2 4:7 5:3 6:5 7:2 8:1 9:8 10:2 11:5 12:2 13:1 17:2 18:1 19:2 21:2 23:1 24:1 25:1 28:1 35:1 38:1 39:2 40:1 41:1 62:2 93:1 107:2 253:0
0 1:4 2:2 3:1 4:7 5:5 6:3 7:2 8:1 9:3 10:4 11:1 15:1 20:2 23:1 24:1 25:1 28:1 42:3 43:2 44:4 45:1 62:2 93:1 102:2 107:1 110:1 121:1 253:0
0 1:12 2:12 4:5 5:4 6:8 9:3 10:1 11:1 23:1 24:1 28:1 34:3 112:3 113:3 253:0
0 1:6 2:5 3:6 4:8 5:5 6:3 7:8 8:3 9:3 10:7 11:1 25:1 37:2 58:2 59:1 60:1 61:2 62:1 63:2 64:2 65:1 66:1 90:1 91:1 94:2 95:1 96:1 107:2 253:0
0 1:6 2:6 4:4 5:4 6:4 9:4 10:1 11:1 23:1 24:1 28:1 74:1 97:1 127:2 128:1 156:1 253:0
0 1:16 2:15 3:2 4:7 5:5 6:4 7:2 8:1 9:9 10:5 11:4 23:2 24:2 28:2 29:7 33:4 34:2 36:1 253:0
0 1:1 3:2 4:4 5:2 6:2 7:4 8:2 9:5 11:2 25:2 35:1 37:1 38:1 39:2 40:1 62:2 91:1 93:1 107:2 118:1 119:1 157:1 253:0
0 4:5 5:4 9:8 10:3 11:12 15:2 16:1 20:2 22:1 23:1 24:1 253:0
0 1:12 2:12 4:3 5:1 6:4 9:3 10:1 11:3 15:2 16:1 20:3 74:1 97:3 253:0
0 1:6 2:6 4:11 5:3 6:2 9:4 10:11 11:6 15:1 20:2 253:0
0 1:6 2:6 4:4 5:2 6:2 9:1 10:3 14:4 15:4 16:2 55:1 88:1 114:1 253:0
0 4:4 5:4 9:8 11:12 62:2 93:1 107:2 253:0
0 1:6 2:6 4:8 6:4 10:7 12:4 13:1 23:1 24:2 253:0
0 4:1 5:1 9:4 11:6 15:2 16:1 20:1 34:1 111:1 253:0
0 4:24 10:38 15:1 20:2 23:2 24:4 253:0
0 1:6 2:6 14:4 15:3 16:1 62:1 63:2 64:2 65:1 84:1 85:1 86:2 92:2 253:0
0 1:6 2:6 4:21 5:4 6:4 9:3 10:31 11:3 12:2 13:1 14:4 15:6 16:2 20:8 253:0
0 15:1 62:1 63:1 64:1 84:1 85:1 86:1 108:1 253:0
0 1:12 2:12 4:10 5:4 6:4 9:4 10:10 11:6 15:5 16:2 20:8 22:1 23:1 24:1 253:0
0 1:6 2:6 4:9 5:4 6:2 9:3 10:11 11:3 15:2 16:1 20:1 22:1 23:1 24:1 67:2 68:1 253:0
0 1:7 2:8 3:1 4:12 5:7 6:1 7:1 9:7 10:8 11:9 15:2 16:1 17:2 19:1 20:3 22:1 23:1 24:1 25:1 69:1 70:1 71:1 253:0
0 1:3 2:1 3:3 4:5 5:1 6:4 7:6 8:3 9:2 10:1 25:3 27:1 29:1 36:1 37:1 42:1 43:1 44:2 45:1 66:2 76:1 102:1 253:0
0 4:23 10:34 12:3 13:1 15:2 16:1 20:3 22:1 23:2 24:3 253:0
0 1:6 2:6 4:13 5:4 6:4 9:3 10:17 11:3 253:0
0 4:11 5:3 9:3 10:18 11:3 253:0
0 1:12 2:12 4:6 5:1 6:8 9:3 10:3 11:3 15:1 20:1 40:1 72:2 73:1 74:1 75:1 253:0
0 1:16 2:15 3:2 4:4 5:2 6:4 7:2 8:1 9:7 10:2 11:6 29:5 36:1 38:1 40:1 72:2 253:0
0 1:11 2:14 4:7 5:2 6:2 9:3 10:8 11:3 14:2 15:3 16:1 20:4 55:1 253:0
0 1:18 2:18 4:6 5:7 6:6 9:6 10:2 11:6 14:4 15:5 16:2 20:2 253:0
0 4:28 5:2 9:2 10:42 11:1 15:4 20:7 22:1 23:2 24:2 28:1 253:0
0 1:12 2:12 4:8 5:3 6:4 9:3 10:7 11:3 15:1 20:2 253:0
0 1:6 2:6 4:6 5:2 6:2 9:3 10:5 11:1 23:1 28:2 35:1 58:1 59:1 60:1 61:2 62:1 63:2 64:2 65:1 92:2 253:0
0 1:10 2:9 3:6 4:6 6:3 7:6 8:3 10:5 14:2 15:2 16:1 25:1 37:1 62:2 63:1 64:2 93:1 107:2 110:2 253:0
0 1:14 2:13 3:2 4:7 5:6 6:7 7:2 9:6 10:1 11:4 23:1 24:1 25:1 28:1 66:1 94:2 95:1 96:1 253:0
0 4:6 5:2 9:1 10:6 58:1 59:1 61:2 63:2 65:1 84:1 86:2 158:1 253:0
0 4:21 10:32 12:3 13:1 15:1 20:2 23:1 24:2 27:1 76:1 133:1 253:0
0 1:12 2:12 4:5 5:5 9:8 10:3 11:7 14:2 15:2 16:1 20:1 23:1 28:2 29:4 35:1 253:0
0 4:4 5:4 9:6 11:6 62:2 93:1 98:2 99:2 100:2 101:2 253:0
0 1:10 2:9 3:6 4:3 6:3 7:6 8:3 25:1 37:1 62:4 63:1 64:2 92:2 93:2 107:2 110:2 253:0
0 1:6 2:6 4:2 5:2 6:2 9:3 11:3 14:2 15:3 16:1 20:1 23:1 24:1 28:1 32:1 74:2 75:1 116:1 117:2 159:1 253:0
0 1:4 2:3 3:2 4:4 5:2 6:5 7:2 8:1 9:2 11:1 14:2 15:1 25:1 62:2 93:1 107:1 253:0
0 4:5 5:2 9:1 10:5 15:1 20:1 22:1 23:1 24:1 253:0
0 1:6 2:6 3:4 4:3 7:4 8:2 10:2 15:1 20:1 22:1 23:1 24:1 25:2 37:1 253:0
0 4:4 5:3 9:2 10:2 11:1 23:2 24:2 28:1 62:2 93:1 107:2 109:1 253:0
0 1:7 2:6 3:2 4:5 5:1 6:5 7:4 8:2 9:3 11:1 12:2 13:1 23:1 24:1 25:3 28:1 29:4 37:1 66:2 253:0
0 1:6 2:6 4:5 5:1 9:2 10:2 11:1 14:2 15:5 16:2 20:5 23:1 24:1 28:1 29:2 62:3 93:3 107:1 253:0
0 1:6 2:6 4:11 5:7 6:2 9:5 10:8 11:4 15:1 20:1 22:1 23:3 24:3 28:2 62:3 93:1 100:1 107:4 253:0
0 1:12 2:12 4:4 5:3 6:4 9:4 10:2 11:3 29:2 38:1 39:1 40:1 72:1 253:0
0 1:12 2:12 4:9 5:6 6:4 9:5 10:6 11:4 15:2 20:2 22:2 23:3 24:3 28:1 29:2 253:0
0 1:6 2:6 4:8 5:5 6:2 9:7 10:4 11:5 14:2 15:2 16:1 20:1 23:1 28:2 35:1 253:0
0 1:6 2:6 4:4 6:2 9:1 10:6 14:2 15:2 26:2 27:1 50:1 51:2 52:2 53:1 77:1 78:1 80:2 81:1 82:2 253:0
0 1:3 2:2 4:5 5:3 6:3 9:4 10:1 11:3 12:2 13:1 38:1 39:1 40:1 42:2 43:1 44:2 72:1 102:1 253:0
0 4:25 10:36 12:5 13:2 15:4 16:1 20:7 22:1 23:3 24:5 27:1 76:3 253:0
0 1:3 2:2 4:3 5:3 6:1 9:5 10:1 11:2 17:2 18:1 19:2 21:1 23:1 28:2 29:1 35:1 40:1 72:1 74:1 88:1 89:1 97:1 114:2 115:1 116:1 117:1 153:1 253:0
0 1:6 2:6 4:11 6:8 10:7 12:2 13:1 14:2 15:3 16:1 20:2 22:1 23:2 24:3 54:1 253:0
0 4:4 5:2 9:1 10:2 15:2 20:2 22:1 23:1 24:1 62:2 93:1 107:2 253:0
0 4:3 5:2 9:1 10:2 15:2 20:2 22:2 23:2 24:2 253:0
0 1:6 2:6 4:3 5:1 6:2 9:2 10:1 11:1 12:2 13:1 15:1 20:1 22:1 23:2 24:3 29:2 41:1 253:0
0 4:13 5:6 9:6 10:12 11:6 15:4 16:2 20:6 253:0
0 1:6 2:6 4:2 6:2 12:2 13:1 14:2 15:2 16:1 62:2 98:1 101:1 106:1 107:2 139:2 140:1 152:1 253:0
0 1:6 2:6 4:1 6:2 14:2 15:2 20:1 22:1 23:1 24:1 50:1 51:3 52:3 53:3 82:1 253:0
0 1:11 2:11 3:5 4:6 5:5 6:7 7:4 8:1 9:8 10:1 11:5 15:1 20:1 23:1 24:2 25:1 29:2 66:1 94:2 95:1 96:1 253:0
0 1:6 2:6 4:12 5:5 6:2 9:6 10:9 11:6 15:3 16:1 20:6 29:2 34:3 112:3 113:3 118:1 119:1 253:0
0 1:14 2:15 4:4 6:5 10:2 14:2 15:2 17:3 18:1 19:2 20:2 21:1 23:1 24:2 30:4 31:2 253:0
0 1:12 2:12 4:5 5:6 6:2 9:8 10:1 11:7 12:2 13:1 15:2 16:1 20:1 22:1 23:1 26:4 27:2 28:1 29:2 32:1 33:2 34:1 41:1 54:1 253:0
0 1:9 2:8 4:3 5:1 6:3 9:4 10:1 11:3 12:3 13:1 15:1 20:1 23:2 24:1 26:2 27:1 28:3 29:2 33:2 34:1 35:1 42:2 43:1 44:2 54:1 102:1 253:0
0 4:5 5:2 9:5 10:3 11:3 12:1 13:1 15:5 16:1 20:8 23:1 28:2 32:1 35:1 38:1 39:1 40:1 41:1 72:1 74:1 97:1 253:0
0 1:15 2:16 3:3 4:8 5:2 6:5 7:2 8:1 9:2 10:7 11:1 25:1 253:0
0 1:6 2:6 4:12 5:1 6:2 9:3 10:16 11:1 14:2 15:2 16:1 20:1 22:1 23:1 24:1 35:1 39:2 40:1 253:0
0 1:6 2:6 4:9 5:5 6:2 9:5 10:7 11:4 15:2 16:1 20:2 22:1 23:2 24:2 28:1 253:0
0 1:12 2:12 4:6 5:6 9:13 10:4 11:11 23:2 26:2 27:1 28:4 29:8 33:2 34:1 35:2 253:0
0 1:8 2:7 3:5 4:5 5:5 6:2 7:8 8:4 9:6 10:2 11:4 12:4 13:2 23:1 24:1 28:1 29:1 33:2 34:1 36:1 37:3 38:1 39:1 40:1 41:2 62:2 93:1 100:1 106:1 149:1 253:0
0 1:6 2:6 4:8 5:8 9:10 10:5 11:8 15:2 16:1 20:1 23:2 24:1 28:3 29:2 33:2 34:1 35:1 88:2 114:4 128:1 154:2 253:0
0 1:12 2:12 4:5 5:7 6:2 9:11 10:1 11:10 23:2 24:1 28:3 29:4 35:1 253:0
0 4:6 5:11 9:7 10:3 11:6 23:1 24:1 28:1 35:1 90:1 91:1 253:0
0 1:6 2:6 4:1 6:2 14:2 15:1 26:2 27:1 253:0
0 1:6 2:6 4:12 5:6 6:2 9:4 10:10 11:2 15:3 16:1 20:3 22:2 23:3 24:3 28:1 40:1 62:2 72:1 88:1 89:1 93:1 100:1 107:2 114:2 149:1 253:0
0 1:10 2:9 3:2 4:1 6:2 7:2 8:1 9:2 11:1 15:1 20:1 22:1 23:1 24:1 26:4 27:2 29:3 36:1 253:0
0 1:6 2:6 4:2 5:1 6:2 9:3 10:1 11:1 15:1 20:2 29:2 58:1 59:1 60:1 61:2 62:1 63:2 64:2 65:1 253:0
0 1:4 2:2 3:4 4:8 5:9 6:4 7:6 8:2 9:9 10:2 11:7 23:1 24:1 25:2 28:1 34:3 36:2 37:1 66:1 94:2 95:1 96:1 112:3 113:3 253:0
0 1:13 2:14 3:1 4:2 6:3 7:1 14:2 15:3 16:1 17:2 19:1 20:2 22:1 23:1 24:1 25:1 30:2 31:1 33:2 34:1 69:1 70:1 71:1 253:0
0 1:6 2:6 4:8 5:4 6:4 9:5 10:4 11:4 23:1 24:1 28:1 29:2 253:0
0 1:6 2:6 4:2 5:3 6:2 9:3 11:1 23:2 24:2 26:2 27:1 28:2 74:1 97:1 253:0
0 1:16 2:21 3:6 4:5 5:4 6:4 7:4 8:2 9:4 11:3 14:2 15:1 66:2 253:0
0 1:6 2:6 4:10 6:4 10:11 15:1 20:1 22:1 23:1 24:1 40:1 72:2 73:1 74:1 253:0
0 1:6 2:6 4:4 5:3 6:2 9:3 10:2 11:1 15:1 20:2 29:2 58:1 59:1 60:1 61:2 62:1 63:2 64:2 65:1 253:0
0 4:2 10:1 15:1 20:1 253:0
0 4:6 5:3 9:2 10:6 11:1 15:1 20:1 22:1 23:1 24:1 46:1 47:1 48:1 49:2 50:1 51:2 52:2 53:1 253:0
0 1:6 2:6 4:12 5:4 6:4 9:3 10:14 11:3 12:3 13:2 14:4 15:4 16:1 20:4 253:0
0 4:4 10:3 15:4 20:7 23:1 24:1 253:0
0 4:8 5:6 9:3 10:9 11:3 253:0
0 1:6 2:6 4:7 5:6 6:6 9:7 10:3 11:5 23:1 24:1 28:1 29:2 34:2 112:2 113:1 253:0
0 1:11 2:9 3:5 4:5 6:6 7:5 8:4 10:2 14:2 15:1 23:1 24:2 25:2 30:2 31:1 37:1 90:1 91:1 253:0
0 1:6 2:6 4:12 5:3 6:4 9:3 10:16 11:3 14:2 15:2 16:1 253:0
0 1:8 2:7 3:5 4:6 5:2 6:4 7:8 8:4 9:3 10:3 11:1 15:5 16:1 20:8 29:1 32:1 36:1 37:3 66:2 253:0
0 1:6 2:6 4:1 14:4 15:3 16:1 20:1 22:1 23:1 24:1 253:0
0 1:1 3:2 4:2 5:2 6:1 7:4 8:2 9:5 11:1 15:2 16:1 20:1 23:1 24:1 25:1 28:1 29:1 35:1 36:1 37:1 38:1 39:2 40:1 47:1 48:1 49:2 50:1 51:2 52:2 53:1 66:2 151:1 253:0
0 4:23 10:36 12:3 13:1 15:1 20:3 23:1 24:2 253:0
0 4:23 10:35 12:5 13:2 15:2 20:5 23:2 24:4 34:1 112:3 253:0
0 1:6 2:6 4:6 5:8 9:11 10:1 11:10 15:3 16:1 20:3 22:1 23:3 24:2 28:3 29:4 32:1 33:2 34:1 253:0
0 1:9 2:8 3:2 4:6 5:2 6:2 7:2 9:3 10:3 11:1 14:5 15:7 16:3 20:3 29:1 36:1 40:1 72:2 88:1 89:1 94:2 95:1 103:1 114:1 253:0
0 1:3 2:1 3:4 4:5 6:4 7:10 8:6 10:1 14:1 15:2 16:1 19:1 21:1 25:5 37:4 69:1 70:1 71:1 103:1 136:1 253:0
0 1:10 2:9 3:6 4:8 5:3 6:2 7:6 8:3 9:3 10:5 11:1 15:2 16:1 20:2 22:1 23:1 24:1 25:2 37:1 58:2 59:1 60:1 61:2 62:1 63:2 64:2 65:1 66:2 92:2 253:0
0 4:25 5:2 9:3 10:38 11:3 15:3 16:1 20:5 23:1 24:2 253:0
0 4:22 10:33 12:3 13:1 15:1 20:3 23:1 24:2 253:0
0 1:6 2:6 4:6 5:5 6:2 9:8 10:2 11:7 12:3 13:1 26:2 27:1 29:4 35:1 98:1 99:2 253:0
0 4:8 5:2 9:5 10:7 11:4 12:2 13:1 15:4 16:1 20:6 23:2 24:1 28:3 32:1 35:1 41:1 253:0
0 1:12 2:12 4:8 5:5 6:4 9:8 10:6 11:7 23:2 24:3 28:1 29:2 33:2 34:1 35:1 98:1 99:2 253:0
0 1:9 2:8 4:9 5:4 6:5 7:4 8:1 9:5 10:3 11:3 15:2 16:1 20:2 23:1 24:1 25:4 26:2 27:1 28:1 29:1 37:2 38:1 40:1 42:2 43:1 44:2 66:2 72:2 94:2 95:1 102:1 142:1 253:0
0 1:8 2:6 3:4 4:2 6:4 7:4 8:2 9:2 35:1 40:2 66:4 72:2 73:2 74:2 253:0
0 1:15 2:16 3:3 4:1 7:2 8:1 14:2 15:2 20:1 47:1 49:2 51:2 53:1 82:2 129:2 130:1 160:2 161:1 253:0
0 4:7 5:11 9:13 11:11 15:3 20:3 22:3 23:5 24:5 28:2 253:0
0 1:1 3:2 4:2 5:2 6:1 7:4 8:2 9:7 11:6 15:1 20:1 23:2 24:1 25:1 28:3 29:1 35:1 36:1 37:1 66:2 253:0
0 1:12 2:12 14:4 15:2 26:8 27:4 62:2 63:1 64:2 92:4 93:1 253:0
0 1:12 2:12 4:2 5:2 6:4 9:4 29:4 39:2 40:2 72:2 88:1 114:1 127:1 128:1 154:1 253:0
0 1:4 2:3 3:2 4:1 5:1 6:2 7:2 8:1 9:2 23:1 24:1 28:1 62:1 63:2 64:2 65:1 84:1 85:1 86:2 88:1 100:1 114:2 253:0
0 1:6 2:6 4:2 5:2 6:2 9:1 10:1 14:2 15:2 20:1 22:1 23:1 24:1 253:0
0 1:6 2:6 4:3 5:2 6:2 9:1 10:2 14:4 15:4 16:2 30:2 31:1 253:0
0 1:14 2:17 3:4 7:2 8:1 9:3 29:4 66:2 253:0
0 1:12 2:12 4:8 5:1 6:6 9:2 10:8 11:1 62:2 93:1 107:6 253:0
0 4:7 5:5 9:6 10:3 11:6 12:2 13:1 23:2 24:2 28:2 253:0
0 1:12 2:12 4:10 5:1 6:8 9:2 10:6 11:1 12:3 13:1 14:2 15:3 16:1 20:3 23:1 24:1 28:1 29:2 34:3 112:3 113:3 253:0
0 1:10 2:7 3:6 4:3 6:6 7:8 8:4 9:2 14:2 15:1 25:4 29:1 33:2 34:1 36:3 37:1 253:0
0 1:2 2:1 3:2 4:22 6:3 7:2 10:35 15:1 20:3 25:1 59:1 60:1 61:2 62:1 63:2 64:2 65:1 94:2 95:1 118:1 119:1 122:1 162:1 253:0
0 4:23 10:35 12:5 13:2 15:3 20:6 23:2 24:4 27:1 76:3 253:0
0 1:6 2:6 4:10 6:2 10:13 14:2 15:3 16:1 20:3 22:1 23:1 24:1 253:0
0 4:23 10:35 12:5 13:2 15:1 20:1 23:2 24:4 27:1 34:2 76:3 112:4 253:0
0 1:6 2:6 4:2 5:1 9:2 11:1 14:2 15:3 16:1 20:2 23:1 24:1 28:1 29:2 253:0
0 1:12 2:12 4:2 5:2 9:6 10:1 11:6 14:2 15:2 16:1 29:4 62:2 92:4 93:1 253:0
0 1:6 2:6 4:8 5:4 6:2 7:4 8:1 9:6 10:4 11:4 14:2 15:3 16:1 20:2 25:2 36:2 37:2 66:1 94:2 95:1 96:1 253:0
0 1:20 2:19 3:2 4:4 6:8 7:2 9:1 10:1 15:1 20:1 22:1 23:1 24:1 25:2 29:2 66:1 94:2 95:1 96:1 253:0
0 1:11 2:14 4:3 5:1 9:1 10:2 14:2 15:3 16:1 20:3 39:1 40:1 72:1 73:1 74:1 253:0
0 1:12 2:12 3:2 4:3 6:5 7:2 8:1 10:1 15:1 17:3 18:1 19:2 20:1 21:1 22:1 23:1 24:1 253:0
0 1:8 2:7 3:2 4:4 5:2 6:5 7:2 9:4 10:1 11:1 25:1 26:2 27:1 29:1 36:1 38:1 40:1 66:1 72:2 94:2 95:1 96:1 253:0
0 4:8 5:6 9:4 10:5 11:2 15:3 20:3 22:3 23:5 24:5 28:2 253:0
0 1:12 2:12 3:8 4:2 6:4 7:4 8:2 14:6 15:5 16:1 20:1 22:1 23:2 24:2 253:0
0 1:6 2:6 4:12 5:3 6:4 9:3 10:16 11:3 14:2 15:1 253:0
0 1:12 2:12 9:2 14:4 15:2 16:1 29:4 38:1 40:1 74:1 97:1 98:1 115:1 116:1 117:1 163:1 253:0
0 1:12 2:12 4:10 5:2 6:6 9:2 10:7 11:1 14:2 15:8 16:3 20:11 23:1 24:1 28:1 33:2 34:1 55:1 253:0
0 1:6 2:6 4:5 5:2 6:2 9:2 10:4 11:1 15:1 20:1 22:1 23:2 24:2 28:1 62:1 107:1 253:0
0 4:12 5:3 9:3 10:7 11:3 12:7 13:3 15:1 20:2 23:2 24:2 28:2 253:0
0 1:12 2:12 4:7 6:6 9:2 10:3 12:8 13:3 29:4 40:1 72:2 253:0
0 1:6 2:6 4:9 5:4 6:4 9:3 10:7 11:3 14:2 15:3 16:1 20:5 23:1 24:1 28:1 90:1 91:1 253:0
0 1:6 2:6 4:7 5:2 6:4 9:3 10:3 11:3 12:5 13:3 14:2 15:2 16:1 20:3 23:1 24:1 28:1 41:2 90:1 91:1 253:0
0 4:4 10:2 15:4 16:1 20:2 22:1 23:1 24:1 27:3 46:1 47:1 48:1 49:2 50:1 51:2 52:2 53:1 76:3 82:2 104:3 151:1 253:0
0 1:2 3:4 4:8 5:4 7:8 8:4 9:4 10:5 11:2 23:2 24:2 25:4 28:2 37:2 253:0
0 1:12 2:12 4:9 5:4 6:4 9:4 10:10 11:3 23:1 24:1 28:1 253:0
0 1:6 2:6 4:13 5:4 6:4 9:3 10:17 11:3 14:2 15:1 23:1 24:2 253:0
0 1:10 2:9 3:2 4:5 5:4 6:3 7:2 8:1 9:6 10:3 11:6 14:2 15:2 16:1 23:1 24:1 25:1 28:1 29:4 33:2 34:1 35:1 90:1 91:1 98:1 99:2 253:0
0 1:6 2:6 4:7 5:3 6:2 9:3 10:6 11:3 14:2 15:1 253:0
0 4:20 10:22 12:2 13:1 15:3 20:6 22:1 23:2 24:3 253:0
0 1:12 2:12 4:4 5:2 6:2 9:5 10:1 11:4 12:2 13:1 23:1 24:1 28:1 29:2 62:2 92:2 93:1 107:1 253:0
0 1:6 2:6 4:8 5:2 6:2 9:3 10:8 11:3 15:2 16:1 20:4 22:1 23:1 24:1 253:0
0 1:12 2:12 4:6 5:3 6:8 9:3 10:3 11:3 14:8 15:10 16:5 20:3 22:1 23:1 24:1 55:1 253:0
0 4:23 10:35 12:3 13:1 15:2 20:4 23:2 24:4 253:0
0 4:4 5:2 9:3 10:2 11:3 12:3 13:1 15:2 16:1 20:1 22:1 23:1 24:1 253:0
0 1:6 2:6 4:7 5:3 6:2 9:1 10:3 14:4 15:10 16:4 20:7 22:1 23:1 24:1 38:1 40:1 62:2 72:1 93:1 107:2 149:1 253:0
0 1:20 2:21 3:3 4:4 5:4 6:5 7:2 8:1 9:6 10:1 11:4 23:2 24:2 25:1 28:2 29:2 35:1 38:1 40:1 72:2 253:0
0 1:6 2:6 4:5 6:2 10:1 12:3 13:1 14:4 15:5 16:1 20:3 22:1 23:1 24:1 27:1 51:3 53:3 76:1 82:3 129:3 130:1 133:1 253:0
0 1:5 2:3 3:4 4:1 7:6 8:3 9:2 25:2 29:1 36:1 37:1 62:2 66:2 74:1 92:1 93:1 97:1 107:1 110:1 115:1 116:1 117:1 253:0
0 1:7 2:7 3:4 4:5 5:6 7:4 8:2 9:9 11:9 12:2 13:1 15:2 16:1 20:1 22:1 23:2 24:1 26:1 27:1 28:2 29:1 32:2 36:1 37:1 62:4 93:2 106:2 107:4 132:1 253:0
0 1:12 2:12 4:4 5:5 6:4 9:5 10:1 11:4 15:2 16:1 20:3 23:1 24:1 28:1 29:2 30:2 31:1 32:1 33:2 34:1 253:0
0 1:6 2:6 4:1 5:1 6:2 9:1 23:1 24:1 28:1 33:2 34:1 50:1 77:1 78:3 79:3 81:3 253:0
0 1:12 2:12 4:8 5:6 6:4 9:8 10:5 11:7 23:1 28:2 33:4 34:2 35:1 253:0
0 1:5 2:3 3:4 4:3 5:4 6:3 7:6 8:3 9:9 11:7 23:2 24:1 25:1 28:3 29:1 35:1 36:1 37:1 66:2 253:0
0 1:8 2:7 3:2 4:3 5:2 6:1 7:2 9:6 10:1 11:6 23:2 24:2 25:1 28:2 29:5 36:1 94:2 95:1 253:0
0 1:12 2:12 4:5 5:4 6:4 9:6 10:1 11:6 15:2 20:2 23:2 24:3 26:4 27:2 28:1 29:2 253:0
0 1:6 2:6 4:8 5:4 6:2 9:3 10:7 11:3 14:4 15:3 16:1 20:1 253:0
0 1:14 2:15 3:3 4:5 5:1 6:5 7:2 8:1 9:1 10:1 12:2 13:1 14:2 15:3 16:1 20:1 22:1 23:2 24:2 25:1 28:1 66:2 253:0
0 1:7 2:6 3:1 4:6 5:6 6:3 7:2 8:1 9:6 10:2 11:6 14:4 15:4 16:2 25:1 36:1 42:1 43:1 44:2 45:1 55:1 142:1 253:0
0 1:9 2:8 4:5 5:2 6:3 9:2 10:2 11:1 14:2 15:4 16:2 20:4 42:2 43:1 44:2 102:1 253:0
0 1:6 2:6 4:22 5:4 6:4 9:3 10:32 11:3 12:2 13:1 14:4 15:7 16:3 20:8 253:0
0 1:6 2:6 4:8 5:2 6:2 9:3 10:7 11:1 23:1 28:2 35:1 58:1 59:1 60:1 61:2 62:1 63:2 64:2 65:1 92:2 253:0
0 1:7 2:6 3:2 4:6 6:4 7:4 8:2 9:1 10:4 15:3 16:1 20:5 22:1 23:1 24:1 25:2 26:2 27:1 29:2 37:1 66:2 90:1 91:1 253:0
0 1:14 2:13 3:2 4:1 6:1 7:2 9:3 25:1 26:2 27:1 29:5 36:1 58:1 59:1 60:1 61:2 62:1 63:2 64:2 65:1 66:1 92:2 94:2 95:1 96:1 253:0
0 1:12 2:12 4:7 5:1 6:4 9:3 10:6 11:3 12:2 13:1 15:2 16:1 20:4 22:1 23:1 24:1 253:0
0 1:6 2:6 4:7 5:2 6:2 9:3 10:8 11:3 14:2 15:3 16:1 20:2 22:1 23:1 24:1 253:0
0 1:6 2:6 4:11 5:8 6:2 9:5 10:7 11:4 15:2 20:2 22:2 23:3 24:3 28:1 62:4 93:2 107:6 164:1 253:0
0 1:1 3:1 4:5 5:1 6:1 7:2 8:1 9:2 10:2 11:1 12:2 13:1 15:2 16:1 20:3 22:1 23:2 24:2 25:1 28:1 36:1 42:1 43:1 44:2 45:1 62:4 93:2 106:2 142:1 164:2 253:0
0 1:12 2:12 4:4 5:2 6:4 9:2 10:1 11:1 14:4 15:5 16:2 20:3 59:1 60:1 61:2 62:1 63:2 64:2 65:1 92:2 253:0
0 1:13 2:12 3:1 4:1 6:2 7:2 8:1 9:3 14:2 15:2 20:1 22:1 23:1 24:1 29:4 36:1 42:1 43:1 44:2 45:1 58:1 59:1 60:1 61:2 62:1 63:2 64:2 65:1 92:2 127:2 128:1 142:1 253:0
0 1:12 2:12 4:11 5:6 6:6 9:6 10:8 11:6 14:8 15:8 16:4 23:1 24:1 28:1 253:0
0 1:6 2:6 4:7 5:2 6:4 9:2 10:6 11:1 253:0
0 1:1 3:1 4:4 6:1 7:2 8:1 10:2 15:1 20:1 22:1 23:1 24:1 25:1 42:1 43:1 44:2 45:1 102:2 253:0
0 1:8 2:9 3:3 4:8 5:7 6:4 7:2 8:1 9:8 10:4 11:7 12:3 13:1 23:1 28:2 30:1 31:1 35:1 165:1 253:0
0 1:12 2:12 3:2 4:7 6:7 7:2 8:1 10:7 15:1 20:1 22:1 23:1 24:1 42:3 43:1 44:2 90:1 91:1 102:1 253:0
0 1:6 2:6 3:2 4:2 7:2 8:1 9:2 10:1 11:1 14:2 15:4 16:2 20:1 22:1 23:1 28:1 32:1 36:1 42:2 43:1 44:2 45:1 142:1 253:0
0 1:12 2:12 4:12 5:5 6:4 9:5 10:11 11:4 14:4 15:4 16:2 20:1 23:2 24:3 28:1 33:2 34:1 253:0
0 1:6 2:6 4:7 5:1 6:10 9:1 10:1 15:3 16:1 20:3 22:1 23:2 24:2 28:1 40:1 72:2 88:1 89:1 114:1 253:0
0 1:8 2:7 3:2 4:2 6:4 7:4 8:2 9:5 11:4 26:1 27:1 29:3 36:3 37:1 132:1 253:0
0 1:12 2:12 4:7 5:2 6:4 9:2 10:8 11:1 15:1 20:3 253:0
0 1:6 2:6 4:6 5:4 6:2 9:5 10:3 11:4 15:2 20:2 22:2 23:3 24:3 28:1 29:2 253:0
0 1:6 2:6 4:3 6:2 10:1 12:3 13:1 14:6 15:4 16:1 20:1 22:1 23:1 24:1 63:4 65:2 83:2 84:4 86:8 137:2 253:0
0 1:7 2:6 3:10 4:4 5:1 7:8 8:4 9:2 10:3 25:2 29:1 36:1 37:1 66:2 253:0
0 1:6 2:6 4:13 5:3 6:2 9:3 10:11 11:3 15:3 16:1 20:5 22:1 23:1 24:1 118:2 119:1 253:0
0 15:1 47:2 48:2 49:4 50:2 51:4 52:4 53:2 151:2 166:1 253:0
0 4:16 5:6 9:4 10:15 11:2 15:5 16:1 20:9 23:1 24:1 27:1 28:1 62:2 76:2 93:1 107:1 108:1 253:0
0 1:6 2:6 4:3 5:3 6:2 9:4 10:1 11:1 26:4 27:2 29:2 38:1 39:1 40:1 72:1 253:0
0 1:2 2:1 3:2 4:6 6:1 7:4 8:2 10:3 14:1 15:3 20:2 25:3 37:1 51:3 53:3 82:3 103:1 129:3 130:1 253:0
0 4:7 5:4 9:4 10:5 11:2 12:2 13:1 15:1 20:1 22:1 23:2 24:1 28:2 35:1 62:2 93:1 107:3 253:0
0 4:21 10:25 12:5 13:2 15:3 20:5 22:1 23:1 24:1 253:0
0 4:3 10:1 15:5 16:2 20:6 55:1 68:1 167:1 253:0
0 1:6 2:6 4:10 5:4 6:2 9:3 10:10 11:3 15:3 16:1 20:4 22:1 23:1 24:1 74:1 97:3 253:0
0 1:10 2:9 3:6 4:3 6:5 7:6 8:3 9:1 14:4 15:4 16:2 25:1 36:2 37:1 59:1 60:1 62:1 66:2 107:1 122:2 253:0
0 1:7 2:6 3:2 4:6 5:3 6:4 7:4 8:2 9:4 10:6 11:2 23:2 24:2 26:2 27:1 28:2 36:2 37:1 253:0
0 1:6 2:6 4:15 5:7 6:2 9:6 10:19 11:6 12:3 13:1 15:2 16:1 20:3 23:1 24:1 28:1 29:2 253:0
0 1:16 2:15 3:2 4:3 6:5 7:2 8:1 10:3 14:4 15:2 25:1 253:0
0 4:3 10:2 27:1 76:1 253:0
0 1:6 2:6 4:7 5:5 6:2 9:5 10:6 11:4 23:1 24:1 28:1 30:2 31:1 253:0
0 1:1 3:1 4:5 5:3 6:2 7:2 8:1 9:4 10:2 11:3 17:1 18:1 19:2 21:1 25:1 36:1 136:1 153:1 253:0
0 1:8 2:7 3:2 4:4 5:2 6:4 7:4 8:2 9:4 11:2 15:1 20:1 23:1 24:1 26:1 27:1 28:1 29:3 36:1 37:1 62:2 93:1 107:1 110:2 132:1 253:0
0 4:11 10:19 23:1 24:2 31:1 124:2 253:0
0 1:6 2:6 4:7 5:3 9:3 10:3 11:3 14:4 15:8 16:4 20:5 253:0
0 1:6 2:6 4:9 10:8 14:2 15:6 16:3 20:7 22:1 23:1 24:1 26:2 27:1 253:0
0 1:6 2:6 4:15 5:3 6:2 9:4 10:17 11:6 15:3 16:1 20:6 22:1 23:1 24:1 253:0
0 1:1 3:2 4:1 7:4 8:2 9:3 15:2 16:1 20:1 22:1 23:1 25:2 28:1 29:1 32:1 36:1 37:1 66:2 74:1 97:1 115:1 116:1 117:1 253:0
0 1:12 2:12 4:7 5:2 6:4 9:3 10:8 11:3 15:1 20:3 23:1 24:2 33:4 34:2 253:0
0 4:23 10:37 15:1 20:3 23:1 24:2 253:0
0 1:8 2:7 3:2 4:12 5:2 6:5 7:2 9:1 10:7 14:3 15:10 16:3 20:13 25:1 55:1 66:1 94:2 95:1 96:1 103:1 253:0
0 1:12 2:12 4:5 5:6 6:4 9:8 11:7 15:2 16:1 20:2 23:2 24:2 26:2 27:1 28:2 29:2 253:0
0 1:7 2:5 3:6 4:4 6:1 7:6 8:3 10:2 14:2 15:2 16:1 20:1 25:1 34:7 37:1 42:2 43:1 44:2 62:2 63:1 64:2 93:1 107:1 110:2 112:11 113:5 253:0
0 1:3 2:1 3:3 4:5 5:1 6:4 7:6 8:3 9:2 10:1 15:1 20:1 25:3 29:1 36:1 37:1 42:1 43:1 44:2 45:1 50:2 51:6 52:6 53:6 66:2 82:1 102:1 168:1 253:0
0 1:11 2:14 4:13 5:2 6:8 9:1 10:12 12:3 13:1 14:4 15:4 20:4 23:3 24:6 54:1 253:0
0 4:21 10:25 12:5 13:2 15:3 20:5 22:1 23:1 24:1 253:0
0 1:6 2:6 4:11 5:3 6:2 9:3 10:13 11:3 15:3 16:1 20:4 22:1 23:1 24:1 62:2 63:1 64:2 93:1 107:1 253:0
0 1:12 2:12 4:9 5:5 6:6 9:5 10:6 11:4 14:2 15:2 16:1 23:2 24:3 28:1 33:2 34:1 90:1 91:1 253:0
0 4:6 5:5 9:4 10:3 11:2 15:1 20:1 22:1 23:3 24:3 28:2 253:0
0 1:10 2:9 3:2 4:5 5:3 6:3 7:2 8:1 9:3 10:4 11:1 25:1 38:1 39:1 40:1 72:1 253:0
0 1:8 2:9 3:3 4:4 5:2 6:2 7:2 8:1 9:1 10:3 253:0
0 1:10 2:10 3:5 4:9 5:5 6:6 7:4 8:1 9:7 10:7 11:4 23:1 25:2 28:2 35:1 66:3 94:2 95:1 96:1 253:0
0 1:12 2:12 4:4 5:3 6:6 9:6 10:1 11:6 23:1 24:1 28:1 29:2 253:0
0 1:1 3:1 4:9 5:3 7:1 9:4 10:8 11:2 15:2 16:1 17:1 19:1 20:2 23:1 24:1 28:1 29:1 70:1 71:1 87:1 88:1 94:1 95:1 114:2 153:1 169:1 170:1 253:0
0 1:3 2:2 3:2 4:5 5:3 6:4 7:2 8:1 9:3 11:1 23:2 24:2 25:2 28:1 66:2 253:0
0 1:7 2:6 3:2 4:7 6:2 7:4 8:2 9:1 10:5 12:1 13:1 15:2 16:1 20:3 37:1 41:1 66:2 253:0
0 1:15 2:17 3:2 4:3 5:4 6:3 7:2 8:1 9:5 11:4 25:1 29:1 36:1 253:0
0 1:7 2:6 3:2 4:4 5:2 6:3 7:4 8:2 9:1 10:1 15:2 16:1 20:2 22:1 23:1 24:1 25:1 33:2 34:1 37:1 66:2 253:0
0 1:12 2:12 4:9 5:2 9:4 10:12 11:2 23:3 24:4 28:2 29:4 88:1 114:4 253:0
0 1:6 2:6 4:4 6:2 10:1 12:3 13:1 14:2 15:2 16:1 20:1 22:1 23:1 24:1 253:0
0 1:3 2:2 4:4 5:3 6:1 9:4 11:1 12:4 13:2 17:2 18:1 19:2 21:1 23:1 24:1 28:1 29:1 38:1 39:1 40:1 41:1 72:1 74:1 97:1 115:1 116:1 117:1 153:1 253:0
0 4:3 5:3 9:2 10:3 15:2 16:1 20:1 32:1 38:1 39:1 40:1 141:1 253:0
0 1:12 2:12 4:10 5:3 6:6 9:4 10:9 11:3 14:2 15:2 20:2 23:1 24:1 26:2 27:1 28:1 29:2 32:1 58:1 59:1 60:1 61:2 62:1 63:2 64:2 65:1 92:2 253:0
0 1:12 2:12 4:6 5:3 6:4 9:3 10:1 11:3 12:3 13:1 15:2 16:1 20:2 22:1 23:1 24:1 253:0
0 1:6 2:6 4:7 5:2 6:2 9:3 10:9 11:3 90:1 91:1 253:0
0 1:12 2:12 4:3 5:2 6:2 9:3 10:3 11:1 26:2 27:1 29:2 35:1 58:1 59:2 60:2 61:4 62:2 63:4 64:4 65:2 92:4 253:0
0 1:6 2:6 4:7 5:3 6:4 9:3 10:5 11:1 14:2 15:2 16:1 20:1 38:1 39:1 40:1 72:1 253:0
0 1:12 2:12 4:13 5:3 6:4 9:3 10:15 11:3 15:3 16:1 20:5 22:1 23:1 24:1 253:0
0 1:6 2:6 4:6 5:3 6:2 9:1 10:5 14:2 15:5 16:2 20:4 253:0
0 1:6 2:6 4:8 5:3 6:2 9:5 10:5 11:4 15:2 16:1 20:3 22:1 23:1 24:1 29:2 253:0
0 1:6 2:6 4:10 5:4 6:2 9:3 10:10 11:3 26:2 27:1 253:0
0 1:12 2:12 4:2 5:3 6:2 9:6 11:4 23:1 24:1 26:4 27:2 28:1 29:2 35:1 38:1 39:2 40:1 253:0
0 1:12 2:12 4:6 5:2 6:6 9:2 10:7 11:1 98:1 99:1 152:1 253:0
0 1:12 2:12 4:5 5:2 6:4 9:2 10:4 11:1 12:1 13:1 15:2 16:1 20:3 253:0
0 1:12 2:12 4:4 5:3 6:4 9:4 10:3 11:3 23:2 24:2 28:2 29:2 253:0
0 1:4 2:3 3:2 4:7 5:6 6:2 7:2 8:1 9:5 10:4 11:3 15:1 20:1 38:1 39:1 40:1 72:1 74:1 75:1 97:1 253:0
0 4:25 10:43 15:1 20:2 23:1 24:2 253:0
0 1:12 2:12 4:8 5:2 6:6 9:3 10:10 11:3 26:2 27:1 253:0
0 1:12 2:12 4:7 6:8 10:6 14:2 15:2 20:1 22:1 23:2 24:3 253:0
0 1:10 2:9 3:2 4:5 5:7 7:2 8:1 9:9 10:1 11:9 15:1 20:1 29:3 36:1 62:2 92:4 93:1 253:0
0 1:6 2:6 4:4 5:3 6:2 9:3 11:3 14:6 15:10 16:5 20:4 22:1 23:1 24:1 253:0
0 1:12 2:12 4:15 6:4 10:13 12:6 13:2 14:2 15:6 16:2 20:9 22:1 23:1 24:1 33:2 34:1 253:0
0 1:6 2:6 4:4 5:5 6:2 9:5 11:4 14:2 15:2 16:1 23:1 24:1 26:4 27:2 28:1 253:0
0 1:12 2:12 4:4 5:5 6:2 9:8 11:7 15:2 20:2 23:2 24:2 26:2 27:1 28:2 29:6 253:0
0 1:12 2:12 4:8 5:3 6:4 9:4 10:6 11:3 15:2 16:1 20:2 23:1 24:1 26:2 27:1 28:1 29:2 38:1 40:1 72:2 253:0
0 4:4 5:3 9:2 10:1 11:1 15:1 20:1 22:1 23:3 24:3 28:1 62:2 93:1 107:2 109:1 253:0
0 4:4 5:1 9:1 10:2 12:3 13:1 23:1 24:1 28:1 40:1 72:2 88:1 89:1 114:1 253:0
0 1:6 2:6 4:5 5:2 6:2 9:5 10:2 11:4 14:2 15:3 16:1 20:2 22:1 23:1 24:1 29:2 253:0
0 4:10 5:1 9:1 10:12 23:1 24:1 28:1 253:0
0 1:9 2:10 3:3 4:9 5:2 6:2 7:2 8:1 9:2 10:10 11:1 12:1 13:1 14:2 15:2 16:1 253:0
0 1:15 2:17 3:2 4:6 5:5 6:7 7:2 8:1 9:5 11:4 23:1 24:1 25:1 28:1 253:0
0 4:17 5:9 9:5 10:15 11:4 15:3 16:1 20:3 22:2 23:3 24:3 28:1 253:0
0 1:12 2:12 4:4 5:4 6:4 9:6 10:1 11:6 29:2 253:0
0 1:10 2:9 3:2 4:11 5:4 6:7 7:2 8:1 9:3 10:8 11:3 12:2 13:1 15:2 16:1 20:4 25:1 253:0
0 1:1 3:2 4:3 5:2 6:1 7:4 8:2 9:7 11:6 15:3 16:1 20:3 23:2 24:1 25:1 27:3 28:3 29:1 35:1 36:1 37:1 55:1 66:2 76:3 104:3 253:0
0 1:6 2:6 4:15 5:9 6:2 9:5 10:13 11:4 15:3 16:1 20:3 22:2 23:3 24:3 28:1 253:0
0 1:10 2:9 3:2 4:3 5:4 6:2 7:2 8:1 9:8 10:1 11:7 23:1 24:1 28:1 29:5 36:1 253:0
0 1:12 2:12 4:6 5:3 6:6 9:2 10:3 11:1 14:4 15:5 16:1 20:3 253:0
0 1:12 2:12 4:5 5:3 6:4 9:6 10:2 11:4 15:2 16:1 20:2 22:1 23:3 24:2 26:2 27:1 28:3 29:2 33:2 34:1 35:1 38:1 40:1 72:2 253:0
0 1:6 2:6 4:6 6:4 10:3 12:3 13:1 23:2 24:4 90:1 91:1 253:0
0 4:11 5:6 9:3 10:15 11:1 15:2 20:2 22:2 23:3 24:3 28:1 253:0
0 4:14 5:2 9:2 10:12 11:1 15:1 20:1 253:0
0 1:12 2:12 4:4 5:1 6:4 9:3 10:1 11:3 14:2 15:6 16:3 20:4 22:1 23:1 28:1 29:2 32:1 90:1 91:1 253:0
0 4:20 10:21 12:5 13:2 15:5 16:1 20:8 22:1 23:1 24:1 54:1 90:1 91:1 253:0
0 1:12 2:12 4:5 5:3 6:6 9:6 10:2 11:6 12:2 13:1 29:2 253:0
0 1:11 2:11 3:5 4:9 5:3 6:2 7:4 8:1 9:3 10:8 11:1 14:2 15:3 16:1 20:3 23:1 24:1 25:2 28:1 29:2 66:1 74:1 94:2 95:1 96:1 105:2 253:0
0 4:25 5:3 9:3 10:33 11:3 12:5 13:2 15:4 16:1 20:7 22:1 23:3 24:5 253:0
0 1:6 2:6 9:2 11:1 29:2 59:1 60:1 61:2 62:2 63:4 64:4 65:2 84:1 85:1 86:2 92:2 100:1 253:0
0 4:19 5:4 9:4 10:22 11:2 15:1 20:1 22:1 23:3 24:2 28:3 35:1 253:0
0 1:8 2:7 3:2 4:7 5:2 6:4 7:4 8:2 9:4 10:2 11:3 12:3 13:2 15:1 20:1 23:2 24:2 25:2 28:1 29:1 36:1 37:1 41:1 62:2 93:1 106:2 107:1 253:0
0 4:5 5:8 9:4 10:4 11:1 34:12 35:1 38:1 39:1 40:1 72:1 112:12 113:12 253:0
0 1:6 2:6 4:5 6:2 9:3 10:3 11:3 15:2 16:1 20:2 22:1 23:1 24:1 29:2 253:0
0 4:2 15:4 16:2 20:2 22:2 23:1 27:6 55:1 76:6 104:6 253:0
0 1:13 2:12 3:2 4:5 5:1 6:2 7:4 8:2 9:3 10:2 11:1 14:2 15:8 16:4 20:8 22:1 23:1 28:1 29:2 32:1 37:1 55:1 62:2 66:2 92:2 93:1 107:1 253:0
0 1:7 2:6 3:2 4:5 6:6 7:4 8:2 10:3 25:2 37:1 253:0
0 1:12 2:12 4:5 5:1 6:4 9:3 10:4 11:3 15:2 16:1 20:5 26:2 27:1 253:0
0 1:7 2:6 3:2 4:4 5:3 6:4 7:7 8:3 9:7 11:6 19:1 21:1 23:1 24:1 25:5 26:2 27:1 28:1 29:2 37:2 66:2 69:1 70:1 71:1 136:1 253:0
0 1:12 2:12 4:3 6:6 10:1 14:4 15:3 16:1 23:1 24:2 253:0
0 1:8 2:7 3:2 4:6 5:4 6:2 7:4 8:2 9:5 10:3 11:2 15:2 20:3 29:2 33:4 34:2 36:2 37:1 58:3 59:2 61:4 62:2 63:2 65:1 93:1 107:1 110:2 171:1 253:0
0 1:12 2:12 4:4 5:2 9:4 11:2 14:4 15:6 16:3 20:4 23:2 24:2 28:2 29:4 253:0
0 4:22 10:30 12:5 13:2 15:2 16:1 20:4 22:1 23:3 24:5 27:1 76:1 133:1 253:0
0 1:12 2:12 4:5 5:5 6:6 9:6 10:2 11:6 23:1 24:1 26:2 27:1 28:1 29:2 253:0
0 1:6 2:6 4:6 5:4 6:4 9:2 10:4 11:1 14:2 15:2 20:2 62:2 63:2 64:4 65:1 93:1 107:1 253:0
0 1:12 2:12 4:9 5:2 6:4 9:2 10:9 11:1 15:2 16:1 20:3 22:1 23:1 28:1 32:1 118:1 119:1 253:0
0 1:12 2:12 4:8 6:4 10:6 12:6 13:2 14:8 15:6 16:2 23:1 24:2 253:0
0 1:6 2:6 4:5 5:3 6:2 9:4 10:2 11:2 23:1 24:1 26:2 27:1 28:1 29:2 253:0
0 1:6 2:6 4:20 6:4 10:27 14:2 15:4 16:1 20:6 253:0
0 1:6 2:6 4:14 5:6 6:2 9:4 10:17 11:3 15:2 16:1 20:2 26:2 27:1 38:1 39:1 40:1 72:1 253:0
0 1:6 2:6 4:7 5:2 6:2 9:2 10:10 11:1 23:2 24:2 28:2 253:0
0 4:20 10:22 12:2 13:1 15:2 20:4 22:1 23:2 24:3 253:0
0 1:6 2:6 4:17 5:3 6:2 9:3 10:21 11:3 12:4 13:1 15:1 20:1 22:1 23:3 24:4 28:1 253:0
0 1:9 2:8 4:5 5:3 6:3 9:3 10:1 11:3 14:2 15:3 16:1 17:2 18:1 19:2 20:1 21:1 26:4 27:2 40:1 72:2 73:1 74:1 75:1 253:0
0 1:4 2:3 3:2 7:2 8:1 14:1 15:3 26:5 27:3 50:1 51:3 52:3 53:3 82:3 103:1 132:1 253:0
0 1:6 2:6 4:8 5:5 6:2 9:4 10:3 11:2 14:4 15:8 16:4 20:2 22:4 23:4 24:2 28:2 55:2 62:2 93:1 107:1 253:0
0 1:17 2:15 3:8 4:3 5:1 6:7 7:10 8:4 9:2 25:3 29:1 33:2 34:1 36:1 37:2 66:1 94:2 95:1 96:1 253:0
0 1:7 2:6 3:2 4:3 6:5 7:4 8:2 10:1 14:2 15:2 20:1 25:1 37:1 253:0
0 1:12 2:12 3:4 4:5 5:4 6:2 7:4 8:2 9:3 10:3 11:1 14:4 15:4 16:1 20:2 37:1 66:2 253:0
0 1:6 2:6 4:11 5:4 6:2 9:3 10:9 11:3 15:4 16:2 20:6 118:1 119:1 253:0
0 4:10 5:8 7:2 9:9 10:12 11:5 18:1 19:2 21:2 23:1 25:2 28:2 35:2 38:1 39:2 40:1 63:2 65:1 74:1 84:2 86:4 94:2 95:1 97:2 136:2 137:1 172:1 253:0
0 1:10 2:9 3:2 4:5 5:3 7:2 8:1 9:5 10:5 11:4 14:2 15:2 16:1 22:1 23:2 24:1 28:2 29:2 32:1 253:0
0 4:2 5:2 9:1 10:1 15:1 20:1 31:1 74:1 97:1 115:1 116:1 117:1 124:2 125:1 253:0
0 1:6 2:6 4:9 5:6 6:2 9:9 10:4 11:9 12:2 13:1 15:2 20:2 22:2 23:4 24:5 28:1 29:4 33:2 34:1 41:1 253:0
0 1:6 2:6 4:7 5:3 6:2 9:4 10:2 11:3 14:2 15:4 16:2 20:3 22:1 23:1 24:1 29:2 253:0
0 1:6 2:6 4:5 5:1 6:6 9:3 10:3 35:1 39:3 40:3 72:3 88:1 89:2 253:0
0 1:14 2:15 3:3 4:3 5:1 6:3 7:2 8:1 9:2 11:1 12:2 13:1 15:1 20:1 22:1 23:2 24:2 25:1 26:4 27:2 28:1 29:2 253:0
0 1:14 2:13 3:2 4:6 5:5 6:6 7:2 9:5 10:3 11:3 14:5 15:4 16:2 23:1 24:1 28:1 66:1 94:2 95:1 96:1 103:1 253:0
0 1:6 2:6 4:3 5:3 6:2 9:3 11:3 14:2 15:3 16:1 20:1 22:1 23:2 24:2 28:1 62:2 92:2 93:1 107:1 253:0
0 1:6 2:6 4:12 5:3 6:2 9:2 10:12 11:1 15:1 20:2 23:1 24:2 253:0
0 1:3 2:2 4:4 5:6 6:1 9:8 11:6 17:2 18:1 19:2 21:1 23:1 24:1 28:1 29:1 40:1 72:1 74:1 88:1 89:1 97:1 114:1 115:1 116:1 117:1 153:1 253:0
0 1:12 2:12 4:5 5:3 6:2 9:6 10:2 11:4 14:2 15:2 16:1 20:1 22:1 23:3 24:3 28:2 29:2 35:1 39:2 40:1 62:2 92:2 93:1 107:1 253:0
0 1:10 2:9 3:2 4:10 5:3 6:8 7:2 8:1 9:2 10:4 11:1 14:2 15:4 16:2 20:3 25:2 253:0
0 4:11 5:3 9:3 10:11 11:3 23:1 24:2 253:0
0 1:12 2:12 4:2 6:4 67:4 68:2 120:1 253:0
0 1:11 2:14 4:2 5:1 6:2 9:3 10:1 11:1 38:1 39:1 40:1 72:1 253:0
0 1:7 2:6 3:2 4:4 5:2 6:3 7:2 9:3 10:1 11:1 14:2 15:2 16:1 20:1 23:1 24:1 25:1 28:1 29:1 36:1 38:1 39:1 40:1 72:1 94:2 95:2 144:1 253:0
0 1:12 2:12 4:2 5:1 6:4 9:1 14:2 15:1 38:1 40:1 72:1 253:0
0 1:12 2:12 4:4 5:1 6:4 9:4 10:3 11:2 23:2 24:1 26:6 27:3 28:3 29:2 35:1 40:1 72:1 88:1 89:1 90:1 91:1 114:2 253:0
0 1:12 2:12 4:8 6:8 10:8 14:12 15:13 16:6 20:3 55:1 253:0
0 1:2 2:1 3:5 4:2 5:4 7:8 8:4 9:9 11:5 29:1 36:3 37:3 50:1 66:2 77:5 78:3 79:3 81:3 253:0
0 1:2 2:1 3:2 4:4 5:6 7:4 8:2 9:8 10:1 11:7 26:1 27:1 29:1 36:3 37:1 62:2 92:2 93:1 132:1 253:0
0 1:6 2:6 4:4 5:5 9:5 11:4 14:2 15:2 16:1 20:1 23:1 24:1 26:2 27:1 28:1 253:0
0 1:7 2:5 3:2 4:2 5:3 6:2 7:2 8:1 9:6 11:6 29:1 36:1 42:2 43:1 44:2 253:0
0 4:2 5:2 9:1 10:1 15:2 20:2 31:1 74:1 97:1 115:1 116:1 117:1 124:2 125:1 253:0
0 4:24 10:34 12:5 13:2 15:9 16:4 20:13 23:2 24:4 34:2 55:2 112:5 253:0
0 4:3 5:2 9:4 10:1 11:2 12:1 13:1 23:2 24:2 28:2 31:1 35:1 124:1 253:0
0 1:4 2:3 3:2 4:4 5:4 6:3 7:2 8:1 9:4 11:2 15:4 16:2 20:2 23:2 24:2 25:1 28:2 253:0
0 1:12 2:12 4:5 5:3 6:4 9:4 10:1 11:3 23:1 24:1 26:2 27:1 28:1 29:2 33:2 34:1 38:1 40:1 62:2 63:2 64:4 65:1 72:2 93:1 107:2 253:0
0 4:16 10:20 15:2 16:1 20:2 23:1 24:2 253:0
0 1:12 2:12 4:6 5:7 6:2 9:9 10:1 11:9 15:1 20:1 23:1 24:1 28:1 29:4 34:3 62:2 92:4 93:1 112:3 113:3 253:0
0 1:6 2:6 4:4 5:3 6:2 9:2 10:1 11:1 14:2 15:2 20:1 22:1 23:3 24:3 28:1 62:2 93:1 107:2 109:1 253:0
0 1:6 2:6 4:7 5:2 6:2 9:3 10:9 11:3 14:2 15:1 253:0
0 1:12 2:12 4:4 5:3 6:4 9:4 10:2 11:1 23:1 24:1 26:2 27:1 28:1 29:4 38:1 40:1 72:2 74:1 97:1 115:1 116:1 117:1 253:0
0 4:26 10:36 12:5 13:2 15:4 16:1 20:7 22:1 23:3 24:5 253:0
0 1:6 2:6 4:8 5:9 6:2 9:6 10:6 11:4 15:1 20:1 22:1 23:3 24:3 28:2 58:1 59:1 61:2 62:2 63:2 65:1 84:1 86:2 93:1 100:1 107:4 158:1 253:0
0 1:10 2:9 3:2 4:3 6:6 7:2 8:1 9:2 11:1 15:1 20:1 22:1 23:1 24:1 29:3 34:3 36:1 112:3 113:3 253:0
0 4:25 10:38 12:4 13:2 15:5 16:2 20:8 22:1 23:1 24:1 54:1 253:0
0 1:12 2:12 4:7 5:7 9:8 10:6 11:7 14:2 15:2 16:1 20:1 23:1 24:1 28:1 29:2 33:2 34:1 35:1 253:0
0 1:2 3:4 4:5 5:2 6:1 7:4 8:2 9:3 10:3 11:3 25:1 29:1 36:1 253:0
0 1:12 2:12 4:6 5:5 6:8 9:2 10:5 11:1 253:0
0 1:6 2:6 4:3 5:2 6:2 9:1 10:2 14:4 15:3 20:2 253:0
0 4:11 5:5 9:3 10:8 11:1 12:3 13:1 15:3 16:1 20:5 22:1 23:2 24:2 28:1 253:0
0 1:6 2:6 4:11 5:4 6:4 9:3 10:13 11:3 14:2 15:2 20:3 118:1 119:1 253:0
0 1:10 2:9 3:2 4:2 5:1 6:4 7:2 8:1 9:1 14:2 15:1 23:1 24:1 28:1 40:1 72:1 88:1 89:1 114:1 253:0
0 1:6 2:6 4:14 10:14 12:4 13:2 14:2 15:5 16:1 20:6 22:1 23:1 24:1 34:1 112:2 253:0
0 1:12 2:12 4:8 5:5 9:6 10:4 11:6 14:6 15:6 16:3 20:2 23:1 24:1 28:1 29:2 253:0
0 4:2 5:1 7:2 9:2 10:1 11:1 23:1 24:1 28:1 36:1 43:1 44:2 45:2 59:1 60:1 61:2 62:1 63:2 64:2 65:1 94:2 95:1 110:1 121:1 142:1 253:0
0 1:6 2:6 4:13 5:4 6:4 9:2 10:14 11:1 14:4 15:4 16:1 20:3 253:0
0 4:23 10:33 12:6 13:3 15:6 16:2 20:10 23:2 24:4 34:1 55:1 112:3 253:0
0 1:3 2:2 4:12 5:4 6:2 9:7 10:15 11:3 13:1 17:2 18:1 19:2 21:2 35:1 41:3 62:2 74:1 93:1 97:1 107:2 115:1 116:1 117:1 253:0
0 1:15 2:14 3:2 4:7 5:1 6:13 7:2 8:1 9:1 10:3 23:2 24:4 25:1 66:2 253:0
0 1:12 2:12 4:9 5:1 6:4 9:3 10:10 11:3 14:4 15:4 16:1 20:4 22:1 23:1 24:1 253:0
0 1:2 3:2 4:9 5:5 6:3 7:4 8:2 9:6 10:3 11:6 25:3 36:1 42:2 43:2 44:4 45:2 102:2 142:1 253:0
0 1:6 2:6 4:14 5:2 9:1 10:17 12:2 13:1 15:1 20:1 22:1 23:1 24:1 58:1 59:1 60:1 61:2 62:1 63:2 64:2 65:1 92:2 253:0
0 4:5 5:5 9:4 10:2 11:2 15:2 16:1 20:1 22:1 23:2 24:2 28:1 62:2 93:1 100:1 107:2 253:0
0 1:6 2:6 4:7 5:4 6:2 9:3 10:4 11:3 12:3 13:1 15:2 20:2 22:2 23:2 24:2 26:2 27:1 62:1 107:2 253:0
0 4:23 5:5 9:6 10:35 11:6 12:3 13:1 253:0
0 1:6 2:6 4:6 5:2 6:2 9:1 10:7 253:0
0 1:4 2:3 3:2 4:2 6:1 7:2 8:1 10:1 23:1 24:2 25:1 62:2 63:1 64:2 93:1 107:1 253:0
0 1:6 2:6 4:7 5:4 6:2 9:5 10:3 11:4 15:2 20:2 22:2 23:3 24:3 28:1 29:2 253:0
0 1:6 2:6 4:5 5:2 6:2 9:2 10:3 11:1 14:2 15:3 16:1 20:3 23:1 24:1 28:1 30:4 31:2 253:0
0 1:12 2:12 4:7 5:4 6:6 9:4 10:4 11:3 14:2 15:2 16:1 29:2 253:0
0 7:2 9:2 11:1 36:1 43:1 44:2 45:2 91:1 94:2 95:1 142:1 157:1 253:0
0 4:26 10:36 12:5 13:2 15:6 16:2 20:12 23:2 24:4 34:1 55:1 112:3 253:0
0 4:6 5:2 9:4 10:8 11:2 12:1 13:1 23:3 24:2 28:4 35:1 253:0
0 1:6 2:6 4:9 5:4 6:4 9:5 10:6 11:4 15:2 20:2 22:2 23:3 24:3 28:1 29:2 253:0
0 1:3 2:2 4:2 5:2 6:1 9:3 17:2 18:1 19:2 21:1 23:2 24:2 28:2 29:1 40:1 72:1 74:1 88:1 89:1 97:1 114:1 115:1 116:1 117:1 153:1 253:0
0 1:14 2:15 3:3 4:10 5:3 6:5 7:2 8:1 9:2 10:11 11:1 15:2 16:1 20:4 25:1 33:2 34:1 253:0
0 1:6 2:6 4:8 5:4 6:2 9:3 10:5 11:3 15:2 16:1 20:2 22:1 23:1 24:1 253:0
0 1:2 2:1 3:5 4:4 5:1 7:8 8:4 9:1 10:3 15:5 16:1 20:8 32:1 37:3 50:1 51:3 52:3 53:3 62:1 66:2 82:1 92:1 110:1 253:0
0 1:6 2:6 4:16 5:3 6:2 9:1 10:19 15:5 16:2 20:6 22:2 23:2 24:2 26:4 27:2 34:1 112:3 253:0
0 1:3 2:2 3:2 4:11 5:2 6:6 7:2 8:1 9:3 10:10 11:3 23:1 24:2 25:2 253:0
0 1:6 2:6 4:1 6:2 14:2 15:2 20:1 22:1 23:1 24:1 62:1 63:2 64:2 65:1 84:1 85:1 86:2 92:2 253:0
0 1:6 2:6 4:8 5:7 9:8 10:5 11:7 14:4 15:4 16:2 20:3 23:1 28:2 35:1 253:0
0 253:0
0 1:7 2:6 3:2 4:4 6:7 7:4 8:2 10:1 25:1 37:1 253:0
0 1:6 2:6 7:2 14:4 15:3 16:1 37:1 94:2 95:3 103:2 144:2 253:0
0 4:15 5:6 9:3 10:20 11:3 15:1 20:1 22:1 23:1 24:1 253:0
0 1:6 2:6 4:8 5:5 6:2 9:5 10:9 11:4 14:2 15:2 16:1 20:2 23:1 24:1 26:2 27:1 28:1 32:1 253:0
0 1:8 2:9 3:3 4:13 5:4 6:3 7:2 8:1 9:3 10:15 11:3 14:2 15:8 16:4 20:5 22:1 23:1 24:1 25:1 253:0
0 1:12 2:12 4:5 5:2 6:6 9:2 10:2 11:1 14:2 15:1 23:1 24:1 28:1 253:0
0 4:9 10:7 12:2 13:1 15:4 16:2 20:6 22:1 23:2 24:3 54:1 253:0
0 1:6 2:6 4:3 6:2 10:1 12:2 13:1 14:2 15:3 16:1 20:1 22:1 23:2 24:3 31:1 124:1 173:1 253:0
0 1:6 2:6 4:1 14:2 15:2 16:1 20:1 22:1 23:1 24:1 253:0
0 1:9 2:9 3:5 4:8 5:1 6:5 7:6 8:3 9:1 10:6 23:1 24:1 25:3 28:1 37:1 66:2 253:0
0 1:6 2:6 9:5 11:2 23:1 26:4 27:2 28:2 29:2 35:2 39:2 40:1 253:0
0 1:12 2:12 4:6 5:3 6:4 9:3 10:3 11:3 15:2 16:1 20:4 26:2 27:1 253:0
0 1:14 2:15 4:4 6:6 10:2 15:1 17:3 18:1 19:2 20:1 22:1 23:2 24:3 62:2 92:2 93:1 253:0
0 1:6 2:6 4:9 5:5 6:2 9:8 10:6 11:7 12:2 13:1 15:1 20:1 22:1 23:2 24:3 29:4 33:4 34:2 41:1 253:0
0 1:6 2:6 4:9 5:4 6:2 9:3 10:7 11:3 12:3 13:1 253:0
0 4:2 5:4 9:4 11:2 50:1 51:1 52:1 77:4 78:2 79:1 80:2 81:2 253:0
0 4:4 5:6 9:6 11:6 27:2 50:1 51:1 52:1 76:2 77:6 78:2 79:1 80:2 81:2 253:0
0 4:6 5:6 9:8 10:4 11:4 15:2 20:2 23:2 24:1 28:3 35:2 39:2 40:1 63:2 65:1 74:3 75:2 84:2 86:4 97:4 137:1 172:1 253:0
0 1:13 2:13 3:5 4:10 5:1 6:5 7:4 8:2 9:1 10:10 14:1 15:2 16:1 20:2 23:1 24:1 25:1 28:1 58:1 59:1 60:1 61:2 62:1 63:2 64:2 65:1 92:2 103:1 253:0
0 1:12 2:12 4:9 5:2 6:4 9:1 10:10 15:2 16:1 20:3 22:1 23:1 24:1 253:0
0 1:6 2:6 4:3 5:2 6:2 9:3 10:1 11:3 23:1 24:1 26:4 27:2 28:1 62:2 63:2 64:4 65:1 93:1 100:1 107:2 253:0
0 1:8 2:7 3:2 4:2 6:2 7:4 8:2 9:2 25:2 29:2 30:2 31:1 36:2 37:1 58:1 59:1 60:1 61:2 62:1 63:2 64:2 65:1 92:2 253:0
0 1:12 2:12 4:2 5:2 9:9 10:1 11:9 23:1 26:2 27:1 28:2 29:6 35:1 253:0
0 1:9 2:10 3:3 4:10 5:4 6:2 7:2 8:1 9:3 10:11 11:3 14:2 15:3 16:1 20:2 253:0
0 1:12 2:12 3:4 4:2 5:3 7:4 8:2 9:5 10:1 11:2 15:2 16:1 22:1 23:2 24:1 28:2 29:2 32:1 36:2 37:1 62:2 92:4 93:1 253:0
0 1:12 2:12 4:2 5:1 6:4 9:1 15:1 20:1 62:2 92:4 93:1 253:0
0 1:12 2:12 4:6 5:2 6:4 9:3 10:4 11:3 12:4 13:1 14:4 15:2 16:1 26:2 27:1 253:0
0 1:6 2:6 4:11 5:6 6:2 9:9 10:8 11:7 14:2 15:2 16:1 20:1 23:2 24:2 28:2 29:2 35:1 38:1 39:2 40:1 253:0
0 1:6 2:6 4:12 5:9 6:2 9:8 10:11 11:7 26:2 27:1 62:2 107:2 253:0
0 4:7 5:2 9:2 10:7 11:1 15:1 20:3 253:0
0 1:7 2:6 3:2 4:2 6:4 7:4 8:2 25:2 26:2 27:1 37:1 253:0
0 1:6 2:6 4:6 6:4 10:4 15:3 16:1 20:5 22:2 23:2 24:2 118:1 119:1 253:0
0 4:4 5:4 9:4 11:6 253:0
0 1:6 2:6 4:8 5:2 9:3 10:10 11:1 29:2 58:2 59:1 60:1 61:2 62:1 63:2 64:2 65:1 92:2 253:0
0 1:6 2:6 4:8 5:8 6:2 7:2 9:6 10:3 11:4 12:3 13:1 14:2 15:2 20:1 22:1 23:3 24:3 25:1 28:2 41:1 43:1 44:2 45:2 62:4 93:2 94:2 95:1 100:1 102:1 107:3 110:1 121:1 253:0
0 1:9 2:10 3:3 4:10 6:2 7:2 8:1 10:10 14:6 15:7 16:3 20:4 22:1 23:1 24:1 253:0
0 1:18 2:20 3:6 4:2 6:2 7:4 8:2 9:6 11:2 23:1 25:2 28:2 29:8 35:1 253:0
0 1:4 2:3 3:2 4:15 5:5 6:2 7:2 8:1 9:7 10:17 11:3 12:2 13:1 14:1 15:2 16:1 23:2 24:1 28:3 35:1 58:3 59:2 61:4 63:2 65:1 103:1 171:1 253:0
0 1:9 2:10 3:4 4:1 6:2 7:5 8:1 25:2 37:2 94:5 95:6 144:4 253:0
0 1:7 2:8 3:1 4:13 5:8 7:1 9:9 10:12 11:9 23:2 24:2 28:2 29:1 36:1 42:2 44:1 174:1 175:1 176:1 253:0
0 1:4 2:3 3:2 4:2 6:1 7:2 8:1 10:1 25:1 46:2 47:2 48:2 49:4 50:2 51:4 52:4 53:2 166:1 253:0
0 1:9 2:8 4:2 5:3 6:1 9:6 11:6 29:2 42:2 43:1 44:2 102:1 253:0
0 1:6 2:6 4:7 5:4 6:2 9:6 10:4 11:6 12:3 13:1 15:2 16:1 20:2 22:1 23:1 28:1 32:1 253:0
0 1:10 2:9 3:6 4:2 6:2 7:6 8:2 10:1 25:2 37:1 94:2 95:1 253:0
0 1:2 2:1 3:2 4:26 5:1 6:1 7:2 9:1 10:39 15:1 20:3 23:1 24:2 25:1 66:1 90:1 91:1 94:2 95:1 96:1 253:0
0 1:13 2:12 3:2 4:7 6:7 7:2 10:6 14:3 15:3 16:1 20:1 22:1 23:1 24:1 25:1 34:2 94:2 95:2 103:1 112:4 113:1 144:1 253:0
0 1:6 2:6 4:11 5:3 6:2 9:3 10:15 11:1 23:1 24:1 26:2 27:1 28:1 59:1 60:1 61:2 62:1 63:2 64:2 65:1 88:1 92:2 114:3 253:0
0 50:1 51:1 52:1 253:0
0 1:14 2:15 3:3 4:7 5:1 6:5 7:2 8:1 9:1 10:6 14:2 15:3 16:1 20:1 22:1 23:2 24:2 25:1 28:1 66:2 253:0
0 1:12 2:12 4:7 5:5 6:2 9:6 10:3 11:6 14:2 15:4 16:2 20:3 22:1 23:2 24:2 28:1 29:2 62:2 92:2 93:1 107:2 253:0
0 4:1 5:1 9:4 11:6 15:1 20:1 34:1 177:1 253:0
0 4:2 10:1 15:1 20:2 68:2 167:2 253:0
0 4:1 34:4 112:4 113:3 253:0
0 4:22 10:32 12:5 13:2 15:1 20:3 23:2 24:4 253:0
0 1:6 2:6 4:13 10:13 12:4 13:3 14:2 15:7 16:2 20:8 22:1 23:1 24:1 178:1 253:0
0 1:6 2:6 4:3 5:5 6:2 9:6 10:1 11:4 35:1 38:1 39:2 40:1 253:0
0 1:6 2:6 4:6 6:6 10:2 12:3 13:2 14:4 15:4 16:1 20:2 22:1 23:2 24:3 54:1 253:0
0 1:12 2:12 4:2 5:3 6:2 9:8 11:7 23:1 24:1 26:2 27:1 28:1 29:6 253:0
0 1:6 2:6 4:6 5:6 6:2 9:5 10:2 11:4 15:2 16:1 20:2 253:0
0 4:10 5:4 9:4 10:8 11:3 12:2 13:1 15:3 16:1 20:3 22:2 23:3 24:3 28:1 38:1 39:1 40:1 41:1 72:1 253:0
0 1:12 2:12 4:5 5:3 6:4 9:3 10:1 11:3 14:2 15:4 16:2 20:3 26:2 27:1 253:0
0 4:10 5:1 9:3 10:10 11:3 15:2 16:1 20:2 22:1 23:1 24:1 253:0
0 4:23 10:33 12:5 13:2 15:3 16:1 20:5 22:1 23:4 24:7 27:1 76:2 253:0
0 1:8 2:9 4:7 5:3 6:2 9:2 10:3 11:1 12:2 13:1 14:6 15:6 16:2 17:3 18:1 19:2 20:4 23:1 24:2 54:1 253:0
0 1:14 2:15 3:3 4:4 5:2 6:1 7:2 8:1 9:2 10:1 11:1 14:4 15:5 16:2 20:4 25:1 26:2 27:1 253:0
0 1:12 2:12 4:6 6:6 10:2 12:2 13:1 14:4 15:5 16:2 20:4 22:1 23:2 24:3 54:1 253:0
0 1:17 2:20 4:6 5:5 9:7 10:5 11:5 14:2 15:3 16:1 20:3 23:1 28:2 29:4 35:1 253:0
0 1:6 2:6 4:5 5:5 6:2 9:5 10:3 11:4 14:2 15:2 16:1 23:1 24:1 28:1 59:1 60:1 61:2 62:1 63:2 64:2 65:1 92:2 253:0
0 1:6 2:6 4:5 5:5 6:2 9:5 10:1 11:4 15:2 16:1 20:2 23:1 24:1 26:2 27:1 28:1 253:0
0 1:10 2:9 3:2 4:9 5:3 6:8 7:2 8:1 9:2 10:5 11:1 15:1 20:2 25:2 34:6 112:6 113:6 253:0
0 1:6 2:6 4:1 5:2 9:4 11:2 15:2 16:1 20:1 22:1 23:1 24:1 26:2 27:1 29:2 35:1 58:2 59:2 60:2 61:4 62:2 63:4 64:4 65:2 92:4 253:0
0 1:12 2:12 4:6 5:4 6:4 9:6 10:3 11:6 23:2 24:3 26:2 27:1 28:1 29:2 33:2 34:1 90:1 91:1 253:0
0 1:12 2:12 4:4 5:2 6:4 9:6 10:1 11:6 12:2 13:1 29:4 253:0
0 1:12 2:12 4:4 5:2 6:2 9:3 10:2 11:3 14:2 15:3 16:1 20:1 22:1 23:2 24:2 26:2 27:1 28:1 29:2 253:0
0 4:3 5:2 9:2 10:1 12:2 13:1 23:1 24:1 28:1 39:1 40:2 72:3 88:2 89:2 114:1 253:0
0 4:6 10:5 12:2 13:1 15:2 16:1 20:2 22:1 23:3 24:5 54:1 253:0
0 1:1 3:2 4:2 5:1 7:4 8:2 9:3 15:2 16:1 20:1 22:1 23:1 25:2 28:1 29:1 32:1 36:1 37:1 66:2 74:1 97:1 115:1 116:1 117:1 253:0
0 1:9 2:7 3:4 4:3 5:1 6:4 7:6 8:2 9:5 10:1 11:3 12:2 13:1 14:2 15:2 16:1 23:1 24:1 25:2 28:1 29:2 34:3 37:1 41:1 66:3 94:2 95:1 96:1 111:3 113:3 253:0
0 1:3 2:2 4:3 5:2 6:1 9:8 11:5 12:2 13:1 17:2 18:1 19:2 21:1 23:2 28:4 29:1 35:2 40:1 72:1 74:1 88:1 89:1 97:1 114:2 115:1 116:1 117:1 153:1 253:0
0 4:20 10:23 12:4 13:2 15:3 20:5 22:1 23:1 24:1 27:1 76:2 253:0
0 1:14 2:15 4:4 5:1 6:4 9:3 10:1 11:3 12:2 13:1 14:8 15:8 16:4 17:3 18:1 19:2 20:1 23:1 24:2 253:0
0 1:6 2:6 4:10 5:3 6:2 9:3 10:5 11:1 12:6 13:2 15:8 16:4 20:7 22:2 23:2 24:2 26:4 27:2 41:2 253:0
0 1:12 2:12 4:7 5:5 6:6 9:5 10:7 11:4 23:4 24:4 28:4 30:2 31:1 33:4 34:2 253:0
0 1:12 2:12 4:5 6:6 10:3 12:2 13:1 15:1 20:1 22:1 23:2 24:3 26:2 27:1 253:0
0 4:12 10:19 15:2 16:1 20:3 22:1 23:1 24:1 253:0
0 4:1 15:1 20:1 22:1 23:1 24:1 62:1 107:1 253:0
0 1:12 2:12 4:7 5:1 6:6 9:3 10:7 11:3 15:2 16:1 20:3 253:0
0 4:5 5:2 9:4 10:3 11:3 12:1 13:1 15:6 16:2 20:8 32:2 34:1 38:1 39:2 40:2 41:1 72:1 112:1 141:1 179:1 253:0
0 1:6 2:6 4:11 5:1 6:2 9:1 10:12 14:2 15:3 16:1 20:2 22:2 23:2 24:2 253:0
0 1:3 2:1 3:2 4:5 5:1 6:3 7:3 8:1 9:2 11:1 15:4 16:2 17:1 19:1 20:4 21:1 22:1 23:2 24:2 25:2 28:1 36:1 42:1 43:1 44:2 45:1 69:1 70:1 71:1 142:1 253:0
0 1:6 2:6 4:7 5:3 6:2 9:3 10:6 11:3 15:2 16:1 20:3 22:1 23:1 24:1 253:0
0 1:7 2:6 3:2 4:4 5:2 6:3 7:4 8:2 9:1 10:1 15:2 16:1 20:2 22:1 23:1 24:1 25:1 37:1 66:2 253:0
0 4:18 5:3 9:2 10:22 11:1 15:6 16:2 20:5 22:2 23:3 24:3 28:1 253:0
0 1:6 2:6 4:2 6:2 12:2 13:1 23:1 24:1 253:0
0 1:4 2:2 3:4 4:2 6:2 7:6 8:2 9:1 14:2 15:4 16:2 25:2 36:2 37:1 66:1 94:2 95:1 96:1 103:2 253:0
0 1:4 2:3 3:2 4:3 6:5 7:2 8:1 14:2 15:2 20:1 23:1 24:1 25:1 253:0
0 1:2 2:1 3:2 4:5 5:2 6:1 7:4 8:2 9:3 11:3 14:1 15:3 20:2 25:1 36:2 37:1 51:3 53:3 82:3 103:1 129:3 130:1 253:0
0 1:12 2:12 14:8 15:8 16:4 22:2 23:1 55:1 253:0
0 1:6 2:6 4:3 5:4 6:2 9:6 11:4 12:2 13:1 14:2 15:2 16:1 23:2 24:2 26:2 27:1 28:2 35:1 41:1 98:1 99:2 253:0
0 1:6 2:6 4:10 5:3 6:2 9:3 10:7 11:3 14:2 15:4 16:2 20:4 22:1 23:1 24:1 253:0
0 1:5 2:3 3:3 4:8 5:6 6:1 7:4 8:2 9:9 10:5 11:7 15:2 16:1 17:1 18:1 19:2 20:2 23:2 24:2 25:1 28:2 29:3 36:2 136:1 153:1 253:0
0 4:29 10:42 12:6 13:2 15:6 16:2 20:11 22:1 23:2 24:3 253:0
0 253:0
0 1:10 2:9 3:2 4:4 5:1 6:2 7:2 8:1 9:3 10:3 11:1 23:1 24:1 28:1 29:4 40:1 72:2 88:1 89:1 114:1 253:0
0 1:10 2:9 3:2 4:11 5:1 6:7 7:8 8:2 9:1 10:6 25:7 37:3 66:1 94:4 95:4 96:1 144:2 253:0
0 1:12 2:12 4:4 6:4 10:3 23:2 24:4 253:0
0 1:9 2:10 3:3 4:9 5:4 6:2 7:2 8:1 9:3 10:10 11:3 12:1 13:1 15:1 20:2 253:0
0 4:26 10:37 12:5 13:2 15:3 16:1 20:4 22:1 23:3 24:5 34:1 112:2 253:0
0 1:8 2:9 4:3 6:2 10:1 12:2 13:1 14:6 15:6 16:3 17:3 18:1 19:2 20:1 23:1 24:2 54:1 253:0
0 1:10 2:9 3:2 4:6 5:5 6:2 7:2 8:1 9:6 10:3 11:6 23:1 24:2 29:1 33:2 34:1 36:1 253:0
0 4:7 5:1 9:3 10:8 11:1 23:2 24:1 28:3 35:1 253:0
0 1:6 2:6 4:1 6:2 14:2 15:2 20:1 253:0
0 1:14 2:13 3:2 4:3 6:5 7:2 9:1 10:1 15:1 20:1 22:1 23:1 24:1 25:1 26:2 27:1 29:2 33:2 34:1 66:1 94:2 95:1 96:1 253:0
0 4:22 10:34 12:3 13:1 15:2 20:4 23:1 24:2 54:1 253:0
0 1:6 2:6 4:10 5:3 6:2 9:4 10:7 11:3 15:1 20:2 29:2 58:1 59:1 60:1 61:2 62:1 63:2 64:2 65:1 253:0
0 1:9 2:8 3:2 4:4 5:2 6:5 7:2 8:1 9:4 10:1 11:1 23:1 24:1 25:1 28:1 29:2 38:1 40:1 66:2 72:2 253:0
0 1:12 2:12 4:7 5:3 6:2 9:5 10:6 11:4 14:2 15:2 16:1 22:1 23:1 28:1 29:2 32:1 33:2 34:1 62:2 63:1 64:2 92:2 93:1 107:1 253:0
0 1:14 2:15 4:2 6:3 9:3 10:1 11:1 14:2 15:1 17:3 18:1 19:2 21:1 23:2 24:2 26:4 27:2 28:2 29:2 35:1 62:1 63:2 64:2 65:1 83:1 84:1 85:1 86:2 253:0
0 1:6 2:6 4:8 6:2 10:7 14:2 15:3 16:1 20:2 22:1 23:1 24:1 253:0
0 1:8 2:9 3:3 4:3 5:1 6:2 7:2 8:1 9:1 10:3 14:2 15:4 16:2 20:1 22:1 23:1 24:1 253:0
0 4:3 5:4 9:5 11:2 15:2 16:1 20:1 22:1 23:1 28:1 32:1 50:1 77:5 78:3 79:3 81:3 253:0
0 1:11 2:14 4:3 5:4 6:4 9:7 11:6 23:2 24:2 28:2 29:2 74:1 97:1 115:1 116:1 117:1 253:0
0 1:8 2:9 3:3 4:7 5:5 6:4 7:2 8:1 9:6 10:7 11:4 58:3 59:2 61:4 63:2 65:1 171:1 253:0
0 4:9 5:8 9:7 10:6 11:5 23:1 24:1 28:1 253:0
0 4:19 10:25 12:9 13:3 15:1 20:3 23:1 24:2 118:1 119:1 253:0
0 4:22 10:33 12:5 13:2 15:4 20:8 23:2 24:4 34:2 112:5 253:0
0 1:12 2:12 4:9 5:2 6:4 9:3 10:5 11:1 12:8 13:3 15:4 16:2 20:3 22:2 23:2 24:2 29:2 41:2 74:1 97:1 115:1 116:1 117:1 253:0
0 4:22 10:37 12:2 13:1 15:6 16:1 20:11 23:1 24:2 55:1 253:0
0 1:8 2:9 4:4 5:3 9:7 10:2 11:5 14:6 15:6 16:3 17:3 18:1 19:2 20:1 23:1 28:2 29:2 35:1 253:0
0 1:12 2:12 4:6 5:3 6:4 9:4 10:3 11:6 15:3 16:1 20:5 22:1 23:1 24:1 253:0
0 1:6 2:6 4:4 6:2 9:1 10:4 15:3 16:1 20:4 22:1 23:1 28:1 32:1 253:0
0 4:3 5:5 7:2 9:6 11:3 36:1 43:1 44:2 45:2 50:1 77:6 78:3 79:3 81:3 94:2 95:1 142:1 253:0
0 1:6 2:6 4:6 5:4 6:6 9:5 11:4 15:2 20:2 22:2 23:3 24:3 28:1 29:2 30:2 31:1 253:0
0 1:13 2:16 42:4 43:1 44:2 253:0
0 1:7 2:6 3:1 7:2 8:1 9:2 29:2 36:1 42:1 43:1 44:2 45:1 58:1 59:1 60:1 61:2 62:1 63:2 64:2 65:1 74:1 92:2 97:1 115:1 116:1 117:1 142:1 253:0
0 4:13 5:10 9:6 10:10 11:6 12:6 13:4 15:7 16:3 20:5 22:1 23:3 24:3 28:2 54:4 62:2 100:2 107:4 139:2 140:1 253:0
0 1:12 2:12 4:3 5:2 6:4 9:4 10:1 11:3 26:2 27:1 29:2 38:1 40:1 72:2 98:1 99:1 152:1 253:0
0 1:15 2:15 3:4 4:3 5:2 6:4 7:4 8:2 9:3 11:1 15:1 20:1 22:1 23:2 24:2 25:2 26:2 27:1 28:1 36:1 42:1 43:1 44:2 45:1 66:2 142:1 253:0
0 1:6 2:6 4:7 5:4 6:4 9:2 10:4 11:1 14:2 15:5 16:2 20:5 22:1 23:1 24:1 253:0
0 1:9 2:8 4:3 5:1 6:1 9:1 10:1 14:1 15:3 16:1 20:2 22:1 23:1 24:1 42:2 43:1 44:2 58:1 59:1 60:1 61:2 62:1 63:2 64:2 65:1 92:2 102:1 155:1 253:0
0 1:6 2:6 4:8 5:8 6:2 9:8 10:5 11:7 15:2 20:2 22:2 23:4 24:3 28:3 35:1 253:0
0 1:12 2:12 4:3 5:1 6:2 9:1 10:1 14:2 15:3 16:1 20:2 22:1 23:1 24:1 58:1 59:1 60:1 61:2 62:1 63:2 64:2 65:1 92:2 253:0
0 1:12 2:12 4:5 5:2 6:6 9:5 10:2 11:4 12:3 13:1 26:2 27:1 29:2 253:0
0 1:6 2:6 14:4 15:2 62:2 63:4 64:4 65:2 84:2 85:2 86:4 92:4 253:0
0 1:12 2:12 4:5 6:6 10:2 14:2 15:3 16:1 20:3 22:1 23:2 24:3 26:2 27:1 253:0
0 1:12 2:12 4:6 5:3 6:6 9:3 10:3 11:1 14:2 15:3 20:3 29:2 253:0
0 1:12 2:12 4:3 5:1 6:4 7:2 9:3 11:1 15:1 20:1 22:1 23:2 24:2 25:1 28:1 29:2 36:1 43:1 44:2 45:2 58:1 59:1 60:1 61:2 62:1 63:2 64:2 65:1 92:2 94:2 95:1 102:1 142:1 253:0
0 1:15 2:16 3:3 4:1 6:1 7:2 8:1 9:1 14:2 15:2 16:1 20:1 25:1 29:2 34:3 58:1 59:1 60:1 61:2 62:1 63:2 64:2 65:1 113:3 180:3 253:0
0 1:12 2:12 4:8 5:6 6:6 9:6 10:2 11:6 12:3 13:1 14:2 15:3 16:1 20:2 26:2 27:1 253:0
0 1:7 2:6 3:2 4:2 5:1 6:2 7:4 8:2 9:1 14:2 15:3 16:1 20:2 22:1 23:1 24:1 37:1 66:2 253:0
0 1:6 2:6 4:7 5:4 6:2 9:4 10:3 11:2 14:2 15:3 16:1 20:3 23:2 24:3 28:1 29:2 253:0
0 1:10 2:9 3:2 4:2 6:4 7:2 8:1 9:2 11:1 15:1 20:1 22:1 23:1 24:1 26:2 27:1 29:3 36:1 253:0
0 1:9 2:10 3:3 4:9 5:3 6:3 7:2 8:1 9:3 10:6 11:3 12:6 13:2 15:3 16:1 20:5 22:1 23:2 24:2 25:1 28:1 41:1 253:0
0 1:15 2:16 3:3 4:4 6:7 7:2 8:1 15:2 16:1 20:2 22:1 23:1 24:1 25:1 253:0
0 1:6 2:6 4:7 6:4 10:7 15:1 20:1 22:1 23:1 24:1 253:0
0 1:6 2:6 4:9 5:3 6:4 9:3 10:7 11:3 23:1 24:2 253:0
0 4:16 5:3 9:1 10:25 253:0
0 4:5 5:4 9:4 10:2 11:2 15:4 20:6 62:2 63:4 64:4 65:2 83:2 84:2 85:2 86:4 253:0
0 4:14 10:18 12:6 13:2 15:2 16:1 20:3 22:1 23:2 24:3 253:0
0 1:12 2:14 3:2 4:2 5:1 6:2 7:4 8:2 9:1 10:1 23:1 24:2 37:1 66:2 253:0
0 1:13 2:12 3:2 4:6 5:1 6:2 7:4 8:2 9:2 10:4 15:4 16:2 20:7 26:2 27:1 29:2 37:1 55:1 62:2 66:2 92:2 93:1 107:1 253:0
0 4:3 5:2 9:5 11:3 12:1 13:1 15:5 16:2 20:5 23:1 28:2 32:1 35:1 38:1 39:1 40:1 41:1 50:1 51:3 52:3 53:3 55:1 72:1 82:1 253:0
0 1:6 2:6 4:9 5:2 6:2 9:3 10:6 11:1 12:6 13:2 15:6 16:3 20:5 22:3 23:3 24:2 26:4 27:2 28:1 32:1 41:2 253:0
0 1:12 2:12 4:10 5:7 6:2 9:6 10:9 11:6 15:2 16:1 20:1 22:1 23:2 24:2 28:1 29:2 253:0
0 1:12 2:12 4:9 5:7 6:2 9:8 10:8 11:7 23:2 24:3 28:1 29:2 33:2 34:1 35:1 253:0
0 4:7 10:4 15:6 16:2 20:9 22:2 23:3 24:3 253:0
0 4:16 10:14 12:11 13:4 15:4 16:2 20:6 22:2 23:2 24:2 253:0
0 1:6 2:6 4:10 5:4 6:2 9:2 10:8 11:1 12:3 13:1 14:2 15:3 16:1 20:3 23:1 24:2 26:2 27:1 253:0
0 1:13 2:16 4:4 6:2 10:3 15:1 17:4 18:1 19:2 20:1 22:1 23:2 24:3 253:0
0 1:6 2:6 4:2 5:4 9:9 11:9 23:1 26:2 27:1 28:2 29:2 35:1 253:0
0 1:6 2:6 4:7 5:3 6:2 9:3 10:4 11:3 14:2 15:4 16:2 20:2 22:1 23:1 24:1 253:0
0 1:1 3:1 4:6 5:4 6:1 7:2 8:1 9:6 10:6 11:6 25:1 36:1 42:1 43:1 44:2 45:1 142:1 253:0
0 1:12 2:12 4:6 5:6 6:4 9:6 10:3 11:4 14:2 15:2 16:1 23:1 24:1 26:2 27:1 28:1 29:2 30:2 31:1 253:0
0 1:12 2:12 4:8 5:7 6:4 9:9 10:2 11:9 12:2 13:1 15:1 20:1 29:4 253:0
0 1:12 2:12 4:9 5:7 9:10 10:9 11:8 23:2 24:2 28:2 29:4 88:1 114:4 253:0
0 1:6 2:6 4:6 5:1 6:2 9:2 10:7 11:1 14:2 15:3 16:1 20:3 22:1 23:1 24:1 253:0
0 1:14 2:13 3:2 4:3 6:4 7:4 8:2 9:3 14:2 15:2 20:1 22:1 23:1 24:1 25:2 29:4 36:2 37:1 58:1 59:1 60:1 61:2 62:1 63:2 64:2 65:1 92:2 127:2 128:1 253:0
0 1:14 2:15 3:3 4:2 5:2 6:4 7:2 8:1 9:5 11:4 87:2 88:1 114:2 253:0
0 4:11 5:3 9:3 10:11 11:3 253:0
0 4:6 5:2 9:5 10:4 11:3 12:5 13:2 23:2 24:2 28:2 35:1 40:1 41:1 62:1 63:2 64:2 65:1 72:2 84:1 85:1 86:2 88:1 89:1 100:1 107:1 114:1 253:0
0 1:8 2:7 3:2 4:2 6:3 7:2 9:2 25:1 26:4 27:2 29:3 34:6 36:1 62:2 63:1 64:2 66:1 90:1 91:1 92:2 93:1 94:2 95:1 96:1 112:3 113:6 180:3 253:0
0 1:9 2:8 4:10 5:3 6:8 9:2 10:8 11:1 14:4 15:2 42:2 43:1 44:2 102:2 253:0
0 1:6 2:6 4:8 5:2 6:4 9:2 10:7 11:1 15:1 20:1 23:1 24:1 28:1 253:0
0 1:6 2:6 4:6 5:6 6:2 9:7 10:3 11:4 12:1 13:1 14:2 15:2 16:1 23:1 24:1 28:1 29:2 58:1 59:1 60:1 61:2 62:1 63:2 64:2 65:1 92:2 253:0
0 1:6 2:6 4:5 6:2 10:3 12:3 13:1 23:2 24:4 62:2 63:2 64:4 65:1 92:2 93:1 253:0
0 1:8 2:9 3:3 4:16 5:4 6:3 7:2 8:1 9:3 10:21 11:3 25:1 253:0
0 1:6 2:6 4:8 6:2 10:6 23:1 24:1 62:2 93:1 107:2 109:1 253:0
0 4:19 5:10 9:6 10:26 11:4 15:1 20:1 22:1 23:3 24:3 28:2 62:2 93:1 100:1 107:4 253:0
0 4:7 5:3 9:3 10:10 11:1 35:1 39:2 40:1 253:0
0 1:6 2:6 4:13 5:4 6:4 9:3 10:16 11:3 12:3 13:1 14:2 15:1 253:0
0 1:10 2:9 3:2 4:5 5:4 6:2 7:2 8:1 9:9 10:2 11:9 12:2 13:1 15:1 20:1 22:1 23:2 24:3 29:5 33:4 34:2 36:1 41:1 253:0
0 1:12 2:12 4:3 5:1 6:4 9:1 10:1 14:2 15:1 38:1 40:1 72:2 253:0
0 1:6 2:6 4:5 5:6 6:2 9:4 10:4 11:2 23:2 24:2 28:2 253:0
0 4:8 10:5 15:5 16:2 20:6 253:0
0 1:12 2:12 4:12 5:4 6:4 9:3 10:11 11:3 14:2 15:4 16:2 20:4 22:2 23:2 24:2 253:0
0 1:6 2:6 4:9 5:2 6:2 7:2 9:2 10:6 11:1 12:6 13:2 15:2 16:1 18:1 19:2 20:3 21:1 22:1 23:1 24:1 25:1 26:4 27:2 41:2 94:2 95:1 136:2 253:0
0 1:12 2:12 3:4 4:5 5:4 6:2 7:4 8:2 9:5 10:1 11:3 25:2 26:2 27:1 29:2 37:1 66:2 74:1 97:1 115:1 116:1 117:1 253:0
0 1:10 2:9 3:2 4:7 5:1 6:7 7:2 8:1 9:3 10:6 11:3 25:1 26:2 27:1 253:0
0 1:6 2:6 4:5 5:3 6:2 9:5 10:3 11:2 15:1 20:3 23:2 24:2 28:2 29:4 34:6 74:1 97:1 112:6 113:6 115:1 116:1 117:1 253:0
0 1:6 2:6 4:6 5:4 9:2 10:4 11:1 14:4 15:5 16:2 20:4 118:1 119:1 253:0
0 1:6 2:6 4:11 5:5 6:2 9:3 10:11 11:3 253:0
0 1:8 2:6 3:4 4:9 5:2 6:6 7:4 8:2 9:5 10:5 11:2 12:2 13:1 23:1 24:1 25:2 28:1 30:2 31:1 35:1 38:1 39:2 40:1 41:1 253:0
0 1:6 2:6 4:3 5:1 6:2 7:4 8:1 9:1 10:1 15:4 16:2 20:6 26:4 27:2 37:2 55:1 66:1 94:2 95:1 96:1 253:0
0 1:12 2:12 4:1 6:2 9:2 11:1 15:1 20:1 22:1 23:1 24:1 26:4 27:2 29:4 253:0
0 1:9 2:7 3:4 4:5 6:6 7:7 8:5 10:2 14:1 15:2 16:1 23:1 24:2 25:2 37:3 103:1 253:0
0 4:7 5:1 9:1 10:6 23:1 24:1 28:1 62:2 107:3 139:2 140:1 253:0
0 4:22 10:34 12:3 13:1 15:1 20:2 23:1 24:2 253:0
0 4:1 27:2 34:4 76:2 112:4 113:2 181:4 253:0
0 1:4 2:3 3:2 4:4 5:2 6:2 7:2 8:1 9:4 10:2 11:2 12:2 13:1 23:2 24:2 28:2 35:1 41:2 253:0
0 1:12 2:12 9:4 11:1 29:8 38:1 40:1 74:1 97:1 98:1 115:1 116:1 117:1 163:1 253:0
0 4:10 10:9 15:1 20:1 22:1 23:1 24:1 253:0
0 1:8 2:9 3:3 4:7 5:5 6:4 7:2 8:1 9:7 10:7 11:4 58:3 59:2 61:4 63:2 65:1 66:2 171:1 253:0
0 1:15 2:16 3:3 4:3 5:2 6:4 7:2 8:1 9:4 10:1 11:3 14:8 15:8 16:4 29:3 36:1 253:0
0 4:8 5:2 9:4 10:10 11:2 23:3 24:2 28:4 35:1 253:0
0 4:7 10:4 15:8 16:4 20:12 22:4 23:4 24:4 253:0
0 1:12 2:12 4:10 5:4 6:4 9:6 10:11 11:6 23:2 24:3 26:2 27:1 28:1 33:2 34:1 253:0
0 1:12 2:12 4:8 5:3 6:4 9:2 10:6 11:1 15:4 16:2 20:7 55:1 253:0
0 1:12 2:12 4:4 5:6 6:4 9:10 11:4 23:1 28:2 29:4 35:1 38:2 39:2 40:2 72:2 253:0
0 1:12 2:12 4:3 5:3 6:4 9:2 10:1 23:1 24:1 28:1 88:1 114:2 253:0
0 1:6 2:6 4:4 6:2 10:1 12:3 13:1 14:4 15:4 16:2 20:2 22:1 23:1 24:1 118:1 119:1 253:0
0 1:12 2:12 4:4 5:1 6:4 9:3 10:2 11:3 12:3 13:1 14:6 15:4 16:2 253:0
0 4:6 5:4 9:10 10:4 11:8 23:3 24:2 28:4 35:3 253:0
0 1:6 2:6 4:4 5:3 6:2 9:3 11:3 14:2 15:3 16:1 20:2 22:1 23:1 24:1 253:0
0 1:12 2:12 4:5 5:6 6:2 9:9 10:1 11:9 23:1 24:1 28:1 29:4 34:3 62:2 92:4 93:1 112:3 113:3 253:0
0 4:28 10:39 12:7 13:3 15:6 16:2 20:10 22:2 23:3 24:3 54:1 253:0
0 1:12 2:12 4:5 5:3 6:2 9:3 10:1 11:1 14:8 15:10 16:4 20:6 23:1 24:1 28:1 253:0
0 1:12 2:12 4:3 6:4 10:3 14:4 15:5 16:2 20:3 253:0
0 1:10 2:9 3:2 4:6 5:4 6:2 7:2 8:1 9:8 10:5 11:7 23:2 24:2 28:2 29:5 36:1 253:0
0 1:9 2:8 4:4 6:6 10:1 14:2 15:1 17:2 18:1 19:2 21:2 23:1 24:2 67:4 68:2 253:0
0 1:12 2:12 4:10 5:5 6:6 9:4 10:8 11:2 15:1 20:2 23:1 24:1 28:1 29:2 253:0
0 1:6 2:6 4:2 5:2 6:4 9:4 11:1 26:4 27:2 35:1 39:2 40:1 88:1 114:3 253:0
0 1:8 2:9 3:3 4:13 5:5 6:4 7:2 8:1 9:6 10:13 11:6 15:2 16:1 20:1 22:1 23:1 28:1 30:1 31:1 32:1 165:1 253:0
0 1:6 2:6 4:4 6:2 10:2 12:2 13:1 15:5 16:2 20:6 22:1 23:1 24:1 26:2 27:1 54:1 253:0
0 1:10 2:9 3:2 4:6 5:7 6:3 7:2 8:1 9:6 10:1 11:6 15:3 16:1 20:3 25:1 26:2 27:1 253:0
0 1:12 2:12 4:9 5:7 6:4 9:6 10:3 11:6 12:2 13:1 15:1 20:2 23:1 24:1 28:1 62:2 92:2 93:1 107:2 253:0
0 1:1 3:2 4:2 5:2 6:1 7:4 8:2 9:10 11:9 15:1 20:1 23:2 24:1 25:1 28:3 29:1 35:1 36:3 37:1 66:2 253:0
0 1:12 2:12 4:7 5:4 6:4 9:6 10:4 11:2 29:4 33:4 34:2 38:2 39:2 40:2 72:2 253:0
0 1:12 2:12 3:5 4:5 6:5 7:4 8:2 10:4 23:1 24:2 25:1 253:0
0 1:11 2:14 4:2 10:1 14:2 15:4 16:2 20:3 22:1 23:1 24:1 26:2 27:1 253:0
0 1:6 2:6 4:7 5:8 6:2 9:6 10:3 11:4 12:3 13:1 14:2 15:2 20:1 22:1 23:3 24:3 26:2 27:1 28:2 41:1 62:2 93:1 100:1 107:2 253:0
0 1:6 2:6 4:5 5:1 6:4 9:1 10:6 14:2 15:1 62:2 63:2 64:4 65:1 92:2 93:1 253:0
0 1:4 2:3 3:2 4:5 5:4 6:1 7:2 8:1 9:2 10:3 11:1 14:2 15:1 25:1 253:0
0 4:9 9:2 10:13 11:1 12:2 13:1 15:4 16:2 20:3 22:2 23:2 24:1 28:1 32:1 55:1 253:0
0 1:12 2:12 4:7 5:2 6:8 9:3 10:5 11:3 14:4 15:3 16:1 20:1 26:2 27:1 253:0
0 1:10 2:9 3:2 4:3 5:2 6:5 7:2 8:1 9:3 11:1 14:6 15:6 16:3 23:1 24:1 25:1 28:1 29:1 36:1 253:0
0 1:6 2:6 4:8 5:9 6:2 9:9 10:2 11:9 12:2 13:1 14:4 15:4 16:2 23:2 24:2 28:2 55:1 253:0
0 1:6 2:6 4:11 5:5 6:4 9:5 10:9 11:4 23:1 24:1 28:1 29:2 253:0
0 1:6 2:6 4:7 5:5 6:4 9:5 10:4 11:4 12:1 13:1 15:3 16:1 20:4 23:1 24:1 28:1 41:1 54:1 253:0
0 1:6 2:6 4:8 5:2 6:4 9:2 10:6 11:1 253:0
0 1:6 2:6 4:1 5:2 9:5 11:2 26:4 27:2 29:2 35:1 39:2 40:1 253:0
0 1:6 2:6 4:5 6:6 10:3 14:2 15:2 20:1 22:1 23:1 24:1 26:2 27:1 253:0
0 1:12 2:12 4:8 5:6 6:2 9:8 10:3 11:7 14:4 15:4 16:2 20:2 23:1 24:1 28:1 29:4 253:0
0 1:3 2:2 3:2 4:2 5:1 7:2 9:4 10:1 11:3 15:1 20:2 29:2 36:2 88:1 94:2 95:1 114:1 253:0
0 1:12 2:12 4:6 5:2 6:4 9:6 10:4 11:6 12:4 13:1 29:4 253:0
0 4:7 5:1 9:1 10:8 88:1 114:1 253:0
0 1:6 2:6 4:8 5:3 6:2 9:3 10:10 11:3 15:2 16:1 20:1 22:1 23:1 24:1 253:0
0 1:8 2:9 3:3 4:3 5:1 6:3 7:2 8:1 9:1 10:1 14:2 15:2 16:1 23:1 24:1 25:1 28:1 74:1 97:1 253:0
0 1:12 2:12 4:6 5:2 6:4 9:3 10:4 11:3 12:4 13:1 14:4 15:2 16:1 253:0
0 1:12 2:12 4:4 5:6 6:4 9:7 11:6 14:6 15:6 16:3 23:1 24:1 26:2 27:1 28:1 29:2 55:1 253:0
0 1:6 2:6 4:3 5:2 6:2 9:2 10:2 11:1 14:4 15:3 20:2 253:0
0 4:19 10:16 12:2 13:1 15:7 16:2 20:9 22:2 23:2 24:2 54:2 253:0
0 1:6 2:6 4:7 5:4 9:3 10:6 11:3 15:1 20:1 22:1 23:2 24:2 28:1 62:3 92:2 93:1 107:3 253:0
0 1:5 2:5 3:4 4:6 5:2 6:2 7:4 8:1 9:3 10:2 11:1 15:2 16:1 20:2 22:1 23:1 24:1 29:2 37:1 66:1 94:2 95:1 96:1 253:0
0 1:6 2:6 4:6 6:2 10:4 14:2 15:9 16:2 20:12 55:1 253:0
0 1:17 2:20 4:2 6:2 9:5 10:1 11:4 29:4 35:1 39:2 40:1 253:0
0 1:12 2:12 4:8 5:3 6:4 9:3 10:7 11:3 15:1 20:3 253:0
0 1:6 2:6 4:1 6:2 14:2 15:1 253:0
0 1:9 2:8 4:6 5:3 6:4 9:3 10:2 11:1 12:2 13:1 15:1 17:2 18:1 19:2 20:1 21:2 22:1 23:2 24:2 28:1 33:2 34:1 38:1 39:1 40:1 62:2 93:1 100:1 106:1 107:1 149:1 253:0
0 1:11 2:9 3:5 4:5 5:2 6:4 7:5 8:4 9:3 10:2 11:3 23:1 24:1 25:2 26:2 27:1 28:1 37:1 253:0
0 4:24 10:34 12:8 13:3 15:2 16:1 20:4 22:1 23:3 24:5 253:0
0 1:9 2:10 3:3 4:5 5:4 7:2 8:1 9:4 10:3 11:2 15:1 20:1 26:2 27:1 29:2 253:0
0 4:10 5:6 9:6 10:4 11:6 12:4 13:2 15:4 16:2 20:4 23:2 24:4 41:2 54:2 253:0
0 1:8 2:7 3:2 4:5 5:3 6:4 7:2 9:4 10:1 11:1 23:1 24:1 25:2 28:1 29:2 38:1 40:1 66:1 72:2 94:2 95:1 96:1 253:0
0 4:5 5:3 9:3 10:1 11:1 15:2 20:2 27:3 50:1 51:1 52:1 76:3 77:3 78:2 79:1 80:2 81:2 82:1 253:0
0 1:6 2:6 4:4 5:3 6:2 9:2 10:2 11:1 15:1 20:2 26:2 27:1 253:0
0 4:5 10:4 15:5 20:9 23:1 24:1 253:0
0 1:6 2:6 4:7 5:1 6:2 9:5 10:8 11:4 13:1 14:4 15:4 16:2 20:1 23:1 28:2 35:1 41:2 253:0
0 1:1 3:2 4:2 5:1 7:4 8:2 9:2 15:1 20:1 25:2 29:1 36:1 37:1 50:1 51:3 52:3 53:3 66:2 74:1 82:1 97:1 115:1 116:1 117:1 253:0
0 4:9 5:2 9:3 10:11 11:1 15:4 16:2 20:2 22:2 23:2 28:2 32:2 253:0
0 1:6 2:6 4:6 5:3 6:2 9:3 10:5 11:1 14:2 15:2 16:1 20:3 38:1 39:1 40:1 72:1 253:0
0 1:6 2:6 4:14 5:3 6:2 9:4 10:13 11:6 15:4 16:2 20:7 55:1 253:0
0 1:10 2:9 3:2 4:4 5:2 6:2 7:2 8:1 9:4 11:2 12:2 13:1 15:6 16:3 20:4 22:2 23:2 24:1 28:1 29:1 36:1 41:1 54:1 55:2 58:2 59:1 60:1 61:2 62:1 63:2 64:2 65:1 92:2 253:0
0 1:11 2:14 4:5 6:6 10:3 62:1 63:2 64:2 65:1 84:1 85:1 86:2 92:2 253:0
0 1:12 2:12 4:4 5:5 6:4 9:5 10:3 11:4 15:1 20:1 23:1 24:1 27:3 28:1 32:1 35:1 76:3 104:3 253:0
0 4:8 5:8 9:8 10:4 11:6 23:4 24:4 28:4 88:1 114:2 253:0
0 1:12 2:12 4:5 5:1 6:6 9:3 11:1 14:4 15:4 16:2 20:2 22:2 23:3 24:3 28:1 29:4 34:6 74:1 97:1 112:6 113:6 115:1 116:1 117:1 253:0
0 1:12 2:12 4:7 5:3 6:6 9:3 10:2 11:3 12:3 13:1 14:2 15:2 16:1 20:1 23:1 24:2 54:1 253:0
0 1:10 2:9 3:6 4:8 5:3 6:2 7:6 8:3 9:3 10:5 11:1 15:2 16:1 20:2 25:2 37:1 58:2 59:1 60:1 61:2 62:1 63:2 64:2 65:1 66:2 92:2 253:0
0 4:8 10:8 15:5 16:2 20:8 55:1 253:0
0 1:6 2:6 4:4 5:2 6:2 9:5 10:2 11:4 15:2 16:1 20:2 22:1 23:2 28:3 32:1 35:1 253:0
0 1:6 2:6 4:2 5:1 6:2 9:1 10:1 14:4 15:5 16:2 20:2 39:1 40:1 55:1 72:1 253:0
0 1:3 2:2 3:2 4:2 5:2 7:2 9:4 11:3 15:2 20:2 29:2 36:2 88:1 94:2 95:1 114:1 253:0
0 1:6 2:6 4:1 5:1 9:5 11:4 12:1 13:1 14:2 15:2 16:1 23:1 28:2 29:2 35:1 41:2 253:0
0 1:12 2:12 4:4 5:5 6:2 9:9 11:9 15:2 16:1 20:2 23:2 24:2 28:2 29:4 35:1 253:0
0 1:12 2:12 4:5 6:6 9:1 10:3 14:4 15:4 16:2 29:2 40:2 72:4 88:1 89:2 253:0
0 1:2 2:1 3:1 4:6 5:3 6:3 7:1 9:3 10:3 11:3 17:1 19:1 21:1 23:1 24:1 28:1 69:1 70:1 71:1 253:0
0 1:6 2:6 4:7 5:3 6:2 9:2 10:5 11:1 15:2 16:1 20:3 22:1 23:1 24:1 253:0
0 1:11 2:9 3:5 4:9 5:2 6:8 7:5 8:4 9:3 10:5 11:3 23:1 24:1 25:2 28:1 37:1 253:0
0 1:6 2:6 4:8 5:2 6:2 9:3 10:6 11:1 12:3 13:1 23:1 24:1 26:2 27:1 28:1 29:2 38:1 40:1 72:2 253:0
0 1:12 2:12 3:4 4:6 5:5 6:2 7:4 8:2 9:3 10:5 11:1 14:2 15:2 20:2 33:2 34:1 37:1 66:2 253:0
0 1:12 2:12 4:6 5:3 6:6 9:3 10:3 11:1 14:2 15:4 16:1 20:3 29:2 253:0
0 1:7 2:6 3:2 4:3 5:1 6:5 7:4 8:2 9:1 10:1 14:2 15:1 23:1 24:1 25:1 28:1 37:1 253:0
0 1:10 2:9 3:2 4:3 5:1 6:3 7:6 8:2 9:2 10:1 25:3 26:3 27:2 29:2 37:2 38:1 40:1 66:2 72:2 94:2 95:1 132:1 253:0
0 1:8 2:9 4:5 5:3 6:3 9:3 10:2 11:1 17:3 18:1 19:2 21:1 38:1 39:1 40:1 72:1 253:0
0 1:3 2:2 4:3 5:2 6:1 9:6 11:4 12:2 13:1 15:1 17:2 18:1 19:2 21:1 23:2 24:1 28:3 29:1 32:1 35:1 40:1 72:1 74:1 88:1 89:1 97:1 114:2 115:1 116:1 117:1 153:1 253:0
0 1:6 2:6 4:13 5:5 6:2 9:4 10:10 11:3 15:2 20:3 22:1 23:2 24:2 28:1 46:1 47:1 48:1 49:2 50:1 51:2 52:2 53:1 82:1 253:0
0 1:6 2:6 4:20 5:4 6:4 9:3 10:28 11:3 12:3 13:2 14:4 15:6 16:2 20:8 253:0
0 1:12 2:12 4:3 5:3 9:6 11:6 15:2 16:1 20:1 22:1 23:1 28:1 29:4 32:1 253:0
0 4:13 5:6 9:6 10:13 11:6 12:2 13:1 23:2 24:2 28:2 253:0
0 4:9 9:1 10:10 15:2 16:1 20:2 22:1 23:1 28:1 32:1 253:0
0 1:12 2:12 4:6 5:1 6:8 9:3 10:3 11:3 15:2 16:1 20:3 23:1 24:1 28:1 253:0
0 1:6 2:6 4:11 5:4 6:2 9:3 10:13 11:3 15:3 16:1 20:4 22:1 23:1 24:1 253:0
0 1:10 2:9 3:2 4:5 5:5 6:2 7:2 8:1 9:6 10:1 11:6 14:1 15:2 16:1 20:1 29:2 103:1 253:0
0 1:12 2:12 4:7 5:5 6:4 9:5 10:3 11:4 12:2 13:1 23:2 24:2 28:2 40:1 72:2 88:1 89:1 114:2 253:0
0 1:12 2:12 3:5 4:4 5:1 6:5 7:4 8:2 9:1 10:1 14:2 15:3 16:1 20:1 22:1 23:2 24:2 25:1 28:1 66:2 253:0
0 1:12 2:12 4:5 5:4 6:6 9:5 10:1 11:4 29:2 253:0
0 1:6 2:6 4:2 5:3 9:4 11:3 14:2 15:2 16:1 20:1 23:2 24:2 28:2 29:2 253:0
0 1:13 2:12 3:2 4:5 5:2 6:6 7:4 8:2 9:1 10:4 15:2 16:1 20:1 22:1 23:1 24:1 37:1 66:2 253:0
0 1:17 2:20 4:6 5:6 6:4 9:7 10:3 11:5 23:2 24:1 28:3 35:1 253:0
0 1:6 2:6 4:9 5:2 6:2 9:3 10:9 11:3 15:2 16:1 20:4 22:1 23:1 24:1 253:0
0 4:17 5:2 9:1 10:17 12:2 13:1 15:4 16:1 20:5 22:1 23:1 24:1 38:1 40:1 62:2 72:1 93:1 107:2 149:1 253:0
0 1:4 2:3 3:2 4:6 5:4 6:3 7:2 8:1 9:4 10:2 11:2 15:4 16:2 20:2 23:2 24:2 25:1 28:2 253:0
0 1:12 2:12 4:6 6:4 10:7 14:4 15:2 33:4 34:2 253:0
0 4:11 5:8 9:4 10:10 11:2 40:2 72:4 73:2 74:2 253:0
0 1:9 2:8 3:2 4:6 6:6 7:2 8:1 9:1 10:4 23:1 24:2 25:2 29:2 253:0
0 1:9 2:8 4:12 5:3 6:8 9:2 10:8 11:1 14:4 15:4 16:2 20:2 22:2 23:2 24:2 42:2 43:1 44:2 102:2 253:0
0 1:12 2:12 4:6 5:10 9:15 10:1 11:15 23:1 26:2 27:1 28:2 29:4 35:1 62:2 92:4 93:1 253:0
0 1:3 2:2 4:13 5:7 6:5 9:12 10:11 11:10 23:2 24:1 28:3 29:1 35:1 42:2 43:1 44:2 90:1 91:1 102:1 142:1 253:0
0 1:12 2:12 4:3 5:2 6:2 9:2 10:1 11:1 14:4 15:4 16:2 20:3 88:1 114:2 253:0
0 1:1 3:2 4:3 5:1 7:4 8:2 9:2 10:1 15:1 20:1 25:2 29:1 36:1 37:1 66:2 74:1 97:1 115:1 116:1 117:1 253:0
0 1:6 2:6 4:6 5:3 6:2 9:6 10:3 11:4 12:1 13:1 14:6 15:10 16:4 20:7 23:2 24:1 28:3 32:1 34:1 35:1 38:1 39:1 40:1 41:1 72:1 112:1 179:1 253:0
0 1:4 2:3 3:2 4:3 7:2 8:1 10:2 14:2 15:5 16:1 20:6 22:2 23:2 24:2 253:0
0 1:6 2:6 4:13 5:3 6:2 9:3 10:15 11:3 12:3 13:1 15:2 16:1 20:2 54:1 253:0
0 1:4 2:3 3:2 4:13 5:6 6:2 7:2 8:1 9:7 10:16 11:6 12:2 13:1 15:1 20:1 22:1 23:2 24:3 29:2 33:2 34:1 36:2 41:1 253:0
0 4:21 10:31 12:4 13:2 15:1 20:3 23:1 24:2 253:0
0 1:6 2:6 4:3 5:2 6:4 9:3 11:3 15:1 20:1 22:1 23:2 24:2 28:1 62:2 93:1 100:1 107:1 253:0
0 1:12 2:12 4:4 6:6 10:3 15:1 20:1 22:1 23:1 24:1 33:2 34:1 253:0
0 1:12 2:12 4:7 5:3 6:4 9:2 10:4 11:1 14:2 15:3 16:1 20:3 253:0
0 4:16 5:3 9:2 10:13 11:1 15:3 16:1 20:3 22:1 23:1 24:1 253:0
0 1:12 2:12 4:10 6:4 10:5 14:4 15:13 16:5 20:15 22:2 23:2 24:2 55:1 253:0
0 4:22 10:33 12:7 13:3 15:3 20:6 23:2 24:4 253:0
0 1:6 2:6 4:9 5:5 6:2 9:3 10:5 11:3 14:2 15:2 16:1 20:1 23:1 24:2 253:0
0 1:8 2:7 3:1 4:9 5:6 6:6 7:1 9:5 10:2 11:4 12:3 13:1 15:3 16:1 17:1 19:1 20:3 21:1 22:2 23:4 24:4 25:1 26:2 27:1 28:2 41:1 62:2 69:1 70:1 71:1 93:1 100:1 107:2 253:0
0 1:12 2:12 4:1 5:1 6:2 9:6 11:4 12:1 13:1 26:2 27:1 29:2 38:1 39:1 40:1 41:1 58:2 59:1 60:1 61:2 62:3 63:2 64:2 65:1 92:2 93:1 100:1 106:1 149:1 253:0
0 1:18 2:18 4:7 5:2 6:6 9:3 10:5 11:3 14:4 15:5 16:2 20:4 253:0
0 4:7 5:6 9:3 10:7 11:3 12:2 13:1 253:0
0 1:6 2:6 4:3 7:2 9:2 10:3 25:1 29:2 36:1 43:1 44:2 45:2 58:1 59:1 60:1 61:2 62:1 63:2 64:2 65:1 92:2 94:2 95:1 102:1 142:1 253:0
0 1:12 2:12 4:1 5:1 9:3 11:1 15:1 20:1 22:1 23:1 24:1 29:4 62:2 63:2 64:4 65:1 92:4 93:1 253:0
0 1:8 2:7 3:2 4:6 5:4 6:2 7:2 9:5 10:3 11:2 12:3 13:1 15:1 20:1 23:2 24:2 26:2 27:1 28:2 29:2 40:1 66:1 72:2 88:1 89:1 94:2 95:1 96:1 114:2 253:0
0 1:4 2:3 3:2 4:4 5:2 6:2 7:2 8:1 9:1 10:3 38:1 40:1 72:1 253:0
0 1:12 2:12 4:8 6:8 10:7 14:4 15:2 23:2 24:4 253:0
0 1:14 2:15 3:3 4:9 5:4 6:6 7:2 8:1 9:6 10:9 11:4 15:2 16:1 20:1 22:1 23:1 28:1 32:1 66:2 253:0
0 1:6 2:6 14:2 15:3 26:6 27:3 51:3 53:3 82:3 129:3 130:1 253:0
0 1:6 2:6 4:3 5:2 6:2 9:1 10:2 88:1 114:1 253:0
0 4:14 10:19 12:5 13:2 253:0
0 1:6 2:6 4:6 5:3 9:3 10:4 11:3 14:4 15:4 16:2 20:3 253:0
0 1:12 2:12 3:4 4:9 5:9 6:4 7:4 8:2 9:9 10:5 11:5 15:1 20:1 22:1 23:2 24:2 25:2 28:1 29:2 37:1 39:1 40:1 66:2 72:1 253:0
0 1:12 2:12 4:5 5:6 6:4 9:6 10:2 11:6 26:2 27:1 62:2 92:4 93:1 253:0
0 1:12 2:12 4:5 5:5 6:4 9:3 10:4 11:1 23:1 24:1 28:1 253:0
0 1:1 3:2 4:2 5:3 6:1 7:4 8:2 9:10 11:9 23:2 24:1 25:1 28:3 29:1 35:1 36:1 37:1 66:2 253:0
0 4:2 10:1 15:4 16:2 20:3 22:2 23:1 55:1 253:0
0 1:6 2:6 4:6 5:3 6:2 9:3 10:3 11:3 12:2 13:1 14:4 15:4 16:2 23:1 24:1 28:1 55:1 253:0
0 1:10 2:9 3:2 4:2 6:4 7:5 8:2 19:1 21:1 25:3 26:2 27:1 37:1 69:1 70:1 71:1 136:1 253:0
0 1:12 2:12 4:8 5:4 6:4 9:3 10:9 11:3 253:0
0 1:9 2:10 3:3 7:2 8:1 9:1 14:4 15:4 16:2 29:2 253:0
0 1:6 2:6 4:3 5:3 6:2 9:3 11:3 14:6 15:8 16:4 20:2 23:1 24:1 28:1 253:0
0 1:12 2:12 4:4 5:4 6:4 9:6 10:1 11:4 23:3 24:4 26:4 27:2 28:2 29:2 253:0
0 1:6 2:6 4:5 5:2 6:2 9:4 11:2 15:4 16:2 20:4 22:2 23:4 24:4 26:2 27:1 28:2 29:4 90:1 91:1 253:0
0 1:12 2:12 4:1 6:2 14:4 15:3 16:1 20:1 22:1 23:1 24:1 253:0
0 1:12 2:12 9:2 11:1 29:4 62:2 92:4 93:1 253:0
0 1:6 2:6 4:2 5:1 6:2 9:1 10:1 14:4 15:5 16:2 20:2 253:0
0 4:22 10:31 12:3 13:1 15:2 16:1 20:3 22:1 23:2 24:3 253:0
0 1:12 2:12 4:4 6:4 10:3 14:10 15:7 16:2 20:2 23:1 24:2 253:0
0 1:12 2:12 4:3 6:6 10:1 14:4 15:3 16:1 20:1 22:1 23:2 24:3 62:2 63:1 64:2 92:2 93:1 253:0
0 1:2 2:1 3:5 4:7 5:2 7:8 8:4 9:3 10:4 11:1 12:3 13:1 15:5 16:1 20:8 29:1 32:1 36:1 37:3 66:2 253:0
0 1:4 2:2 3:2 4:6 5:1 6:4 7:4 8:2 9:1 10:3 12:3 13:1 15:1 20:1 22:1 23:1 24:1 37:1 42:2 43:1 44:2 66:2 102:2 253:0
0 1:13 2:14 3:1 4:10 5:4 6:5 7:1 9:5 10:8 11:4 17:2 19:1 23:1 24:1 25:1 28:1 29:2 69:1 70:1 71:1 253:0
0 1:6 2:6 4:1 6:2 9:1 15:1 20:1 22:1 23:1 24:1 29:2 253:0
0 4:6 5:5 9:6 10:2 11:3 12:5 13:2 15:1 20:1 23:3 24:2 28:4 35:1 41:1 62:4 63:1 64:2 93:2 107:1 164:1 253:0
0 1:12 2:12 4:3 9:7 10:2 11:5 14:2 15:2 16:1 20:1 29:6 35:1 98:1 99:2 253:0
0 1:7 2:5 3:2 4:8 5:8 6:3 7:2 8:1 9:7 10:3 11:4 12:3 13:1 15:1 20:1 22:1 23:4 24:4 28:3 41:1 42:2 43:1 44:2 62:2 66:2 93:1 100:1 102:1 107:2 253:0
0 1:9 2:8 4:4 5:3 6:3 9:3 10:2 11:3 17:2 18:1 19:2 21:1 253:0
0 1:6 2:6 4:1 14:2 15:3 16:1 20:2 253:0
0 1:6 2:6 4:4 5:3 6:2 9:2 10:2 11:1 15:2 20:3 23:1 24:1 27:2 28:1 62:2 63:2 64:4 65:1 76:2 92:2 93:1 104:1 253:0
0 4:1 5:1 9:1 27:1 58:1 59:2 60:2 61:4 62:2 63:4 64:4 65:2 76:1 88:1 114:1 182:2 253:0
0 4:23 10:34 12:3 13:1 15:2 16:1 20:3 22:1 23:2 24:3 253:0
0 1:6 2:6 4:7 5:2 6:2 9:3 10:6 11:1 23:1 28:2 35:1 58:1 59:1 60:1 61:2 62:1 63:2 64:2 65:1 92:2 253:0
0 1:10 2:10 3:5 4:4 5:2 6:4 7:4 8:1 9:2 10:1 15:1 20:1 22:1 23:1 24:1 29:2 66:3 90:1 91:1 94:2 95:1 96:1 253:0
0 1:12 2:12 4:10 5:4 6:4 9:2 10:12 11:1 253:0
0 1:12 2:12 4:7 5:1 6:8 9:3 10:4 11:3 12:3 13:1 74:1 97:3 253:0
0 1:12 2:12 4:5 6:6 10:3 14:4 15:4 16:2 26:2 27:1 40:2 72:4 88:1 89:2 253:0
0 1:10 2:9 3:2 4:5 5:3 6:2 7:2 8:1 9:5 10:3 11:4 23:1 24:1 28:1 29:4 253:0
0 1:6 2:6 4:12 5:4 6:2 9:2 10:15 11:1 15:1 20:3 26:4 27:2 253:0
0 4:1 5:1 9:3 11:3 62:1 107:1 253:0
0 1:6 2:6 4:13 5:8 6:4 9:8 10:11 11:7 15:1 20:2 23:1 24:1 28:1 29:2 253:0
0 1:6 2:6 4:9 5:3 6:2 9:2 10:8 11:1 14:2 15:3 16:1 20:4 32:1 253:0
0 1:14 2:15 3:3 4:6 5:4 6:5 7:2 8:1 9:3 10:2 11:1 14:2 15:4 16:1 20:2 22:1 23:3 24:3 25:1 26:2 27:1 28:2 66:2 253:0
0 1:6 2:6 4:5 5:1 9:2 10:5 12:2 13:1 26:4 27:2 29:2 38:1 39:1 40:1 58:1 59:1 60:1 61:2 62:1 63:2 64:2 65:1 72:1 92:2 253:0
0 1:6 2:6 4:6 5:4 6:4 9:5 10:2 11:4 23:1 24:1 28:1 29:2 253:0
0 1:9 2:8 4:16 6:6 10:21 12:3 13:1 14:2 15:3 16:1 17:2 18:1 19:2 20:4 22:1 23:1 24:1 253:0
0 1:6 2:6 4:6 5:2 6:2 9:3 10:7 11:3 14:2 15:3 16:1 20:3 32:1 253:0
0 1:12 2:12 4:10 5:4 6:4 9:4 10:10 11:6 14:4 15:4 16:2 20:3 22:1 23:1 24:1 253:0
0 1:12 2:12 4:14 5:5 6:4 9:4 10:12 11:6 14:2 15:5 16:2 20:5 22:1 23:1 24:1 253:0
0 1:10 2:9 3:2 4:3 5:4 6:2 7:2 8:1 9:7 10:1 11:5 14:4 15:6 16:3 20:1 23:2 24:1 28:3 29:3 33:2 34:4 35:1 36:1 111:3 113:3 253:0
0 4:4 10:2 12:2 13:1 15:2 16:1 20:3 22:1 23:1 24:1 34:3 90:1 91:1 112:3 113:3 253:0
0 4:24 10:33 12:3 13:1 15:4 16:2 20:7 22:2 23:2 24:2 118:1 119:1 253:0
0 4:19 10:20 12:4 13:2 15:5 16:1 20:8 22:1 23:1 24:1 253:0
0 1:3 2:2 4:2 5:2 6:2 9:5 11:2 26:1 27:1 29:2 35:1 38:1 39:2 40:1 42:2 43:1 44:2 183:1 253:0
0 1:6 2:6 4:5 5:3 6:2 9:2 10:2 11:1 14:2 15:3 16:1 20:3 253:0
0 1:2 2:1 3:2 4:7 5:2 6:2 7:4 8:2 9:4 10:2 11:3 12:2 13:1 15:1 20:1 23:1 25:2 28:1 29:1 36:1 37:1 41:1 62:2 106:1 107:2 139:2 140:1 253:0
0 1:3 2:2 4:2 6:1 9:1 10:1 17:2 18:1 19:2 21:1 23:1 24:2 27:1 29:1 74:1 76:1 97:1 115:1 116:1 117:1 153:1 253:0
0 1:6 2:6 4:3 5:2 6:2 9:3 10:2 11:1 15:1 20:2 29:2 58:1 59:1 60:1 61:2 62:1 63:2 64:2 65:1 253:0
0 13:1 27:4 104:2 133:4 253:0
0 4:15 5:3 9:3 10:16 11:3 15:2 16:1 20:2 22:1 23:1 24:1 253:0
0 1:9 2:8 4:6 5:3 6:3 9:4 10:3 11:6 15:3 16:1 20:5 22:1 23:1 24:1 42:2 43:1 44:2 102:1 253:0
0 1:6 2:6 4:4 5:3 6:4 9:4 10:1 11:6 253:0
0 4:11 5:2 9:4 10:17 11:2 23:2 24:2 28:2 35:1 62:1 100:2 253:0
0 1:11 2:14 4:3 5:3 6:4 9:3 11:3 15:1 20:1 22:1 23:3 24:3 28:2 253:0
0 4:20 10:26 12:10 13:4 15:1 20:3 23:1 24:2 253:0
0 1:12 2:12 4:6 5:5 6:2 9:6 10:3 11:6 14:2 15:3 16:1 20:2 29:2 33:2 34:1 253:0
0 1:7 2:6 3:2 4:2 5:4 7:4 8:2 9:8 11:6 29:2 35:1 37:1 38:1 39:2 40:1 62:2 66:2 92:2 93:1 110:2 253:0
0 1:16 2:12 3:8 4:7 6:10 7:8 8:4 10:8 25:2 253:0
0 1:6 2:6 4:3 5:3 6:2 9:3 11:3 14:6 15:8 16:4 20:2 98:1 99:1 152:1 253:0
0 1:12 2:12 4:7 5:3 6:4 9:3 10:4 11:3 15:3 16:1 20:5 22:1 23:1 24:1 253:0
0 1:6 2:6 4:6 5:3 6:2 9:2 10:3 11:1 12:1 13:1 14:2 15:2 16:1 20:1 40:1 72:2 73:1 74:1 253:0
0 1:6 2:6 4:2 5:1 6:2 9:2 11:1 15:3 16:1 20:2 22:1 23:1 28:1 32:1 253:0
0 1:6 2:6 4:13 6:4 10:18 15:3 16:1 20:4 22:2 23:2 24:2 253:0
0 63:2 65:1 253:0
0 1:6 2:6 4:16 5:4 6:4 9:3 10:21 11:3 14:2 15:2 20:3 253:0
0 1:6 2:6 4:5 5:3 6:2 9:4 10:3 11:1 15:2 16:1 20:1 22:1 23:1 24:1 35:1 39:2 40:1 58:1 59:1 60:1 61:2 62:1 63:2 64:2 65:1 92:2 253:0
0 1:6 2:6 4:2 5:3 9:6 11:6 23:2 24:2 28:2 29:2 253:0
0 1:14 2:15 3:3 4:5 5:2 6:7 7:2 8:1 9:4 11:3 15:2 16:1 20:2 22:1 23:1 24:1 25:1 66:2 253:0
0 1:12 2:12 4:3 5:2 6:4 9:5 10:2 11:4 29:4 253:0
0 1:3 2:2 4:6 5:3 6:1 9:2 10:3 11:1 23:3 24:3 28:1 42:2 43:1 44:2 62:4 93:2 102:1 107:5 109:2 253:0
0 4:17 10:13 12:4 13:2 15:4 16:1 20:5 22:1 23:1 24:1 253:0
0 4:3 10:2 15:1 20:1 253:0
0 1:6 2:6 4:13 5:8 6:2 9:7 10:12 11:6 23:2 24:2 26:2 27:1 28:2 253:0
0 13:1 27:3 104:1 133:3 253:0
0 1:9 2:8 3:2 4:5 5:6 6:5 7:2 8:1 9:9 11:7 23:2 24:2 25:1 28:2 29:2 34:3 35:1 39:2 40:1 112:3 113:3 253:0
0 4:27 10:36 12:5 13:2 15:5 16:2 20:8 22:2 23:4 24:6 253:0
0 1:12 2:12 3:2 4:6 5:5 7:2 8:1 9:6 10:4 11:6 14:2 15:3 16:1 20:3 33:4 34:2 36:1 42:2 43:1 44:2 45:1 142:1 253:0
0 1:12 2:12 4:5 6:6 10:3 15:3 16:1 20:5 22:1 23:1 24:1 26:2 27:1 253:0
0 1:6 2:6 4:2 6:2 14:2 15:3 16:1 20:2 22:1 23:1 24:1 253:0
0 1:6 2:6 4:10 5:7 6:4 9:5 10:9 11:4 14:2 15:2 16:1 58:2 59:1 60:1 61:2 62:1 63:2 64:2 65:1 253:0
0 1:12 2:12 4:9 5:7 6:8 9:6 10:5 11:6 15:1 20:1 33:2 34:4 112:3 113:3 253:0
0 4:4 9:4 10:2 15:2 16:1 20:3 35:2 40:2 72:3 88:2 89:2 98:2 99:4 114:2 253:0
0 1:6 2:6 4:5 5:1 6:2 9:6 10:5 11:2 23:1 24:1 28:1 29:2 35:1 38:1 39:2 40:2 72:2 88:1 89:1 91:1 114:1 157:1 253:0
0 1:15 2:14 3:2 4:8 5:5 6:3 7:2 8:1 9:9 10:6 11:7 15:2 16:1 20:4 23:1 25:1 28:2 29:6 35:1 66:2 253:0
0 4:13 10:18 15:2 20:2 253:0
0 1:6 2:6 4:6 5:9 6:2 9:9 11:9 14:2 15:4 16:2 20:2 23:2 24:2 28:2 253:0
0 1:8 2:7 3:2 4:5 5:5 6:2 7:2 9:6 10:1 11:6 25:2 26:2 27:1 29:2 94:2 95:1 253:0
0 1:6 2:6 4:8 5:2 6:2 9:3 10:9 11:3 14:2 15:2 20:2 253:0
0 1:4 2:3 3:2 4:5 6:2 7:2 8:1 10:3 15:4 16:2 20:5 22:1 23:1 24:1 253:0
0 1:6 2:6 4:6 5:5 6:2 9:6 10:4 11:4 23:1 24:1 28:1 29:2 38:1 39:1 40:1 62:2 93:1 100:1 107:1 149:1 253:0
0 1:7 2:6 3:2 4:5 5:2 6:3 7:4 8:2 9:1 10:2 15:2 16:1 20:2 22:1 23:1 24:1 25:1 37:1 66:2 253:0
0 1:6 2:6 4:8 5:2 6:2 9:3 10:9 11:3 15:2 16:1 20:2 22:1 23:1 24:1 253:0
0 4:7 5:4 9:8 10:2 11:12 15:4 16:2 20:4 22:2 23:2 24:2 253:0
0 1:10 2:9 3:2 4:1 5:1 6:2 7:2 8:1 9:4 11:3 14:2 15:2 16:1 22:1 23:1 28:1 32:1 66:2 253:0
0 1:12 2:12 4:6 5:4 6:4 9:2 10:4 11:1 14:4 15:4 16:2 253:0
0 1:10 2:9 3:2 4:6 5:2 6:3 7:2 8:1 9:3 10:4 11:3 12:4 13:1 25:1 26:2 27:1 253:0
0 1:12 2:12 4:10 5:8 6:4 9:7 10:10 11:6 23:1 24:1 28:1 253:0
0 1:1 3:2 4:3 5:1 6:1 7:4 8:2 9:2 10:2 15:1 20:2 25:1 27:1 36:2 37:1 76:2 253:0
0 1:6 2:6 3:4 4:6 7:4 8:2 9:2 10:6 11:1 15:2 16:1 22:1 23:1 28:1 32:1 36:2 37:1 62:2 92:2 93:1 107:2 253:0
0 4:5 10:4 15:5 20:9 22:1 23:2 24:2 253:0
0 4:5 10:6 15:6 16:2 20:6 27:3 55:1 76:3 104:3 253:0
0 1:12 2:12 4:9 5:6 6:4 9:6 10:6 11:6 15:1 20:1 26:2 27:1 62:2 92:4 93:1 253:0
0 4:2 5:2 9:3 11:3 62:1 98:1 99:1 100:1 101:1 253:0
0 1:6 2:6 4:2 9:8 11:4 15:4 16:2 20:2 22:2 23:2 28:2 29:4 32:2 35:2 98:2 99:4 253:0
0 1:6 2:6 4:10 5:5 6:6 9:5 10:5 11:4 23:1 24:1 28:1 29:2 253:0
0 1:3 2:2 4:3 5:3 6:1 9:6 11:4 15:1 17:2 18:1 19:2 20:1 21:1 23:1 28:2 29:1 35:1 40:1 72:1 74:1 88:1 89:1 97:1 114:2 115:1 116:1 117:1 153:1 253:0
0 4:9 10:7 12:2 13:1 15:2 16:1 20:2 22:1 23:1 24:1 90:1 91:1 253:0
0 4:6 5:3 9:2 10:2 11:1 15:3 16:1 20:3 22:2 23:2 24:2 62:4 93:2 100:1 107:4 253:0
0 4:5 5:5 9:3 10:3 11:1 15:1 20:1 22:1 23:1 24:1 39:1 40:1 62:2 72:1 93:1 107:2 253:0
0 4:19 10:20 12:5 13:3 15:4 16:1 20:6 22:1 23:2 24:3 253:0
0 4:18 5:3 9:2 10:16 11:1 15:2 20:3 23:1 24:1 28:1 253:0
0 1:1 3:2 4:11 5:3 6:1 7:4 8:2 9:6 10:9 11:6 23:3 24:3 25:3 28:3 29:1 35:1 36:1 37:1 253:0
0 4:23 10:35 12:5 13:2 15:1 20:2 23:2 24:4 253:0
0 1:6 2:6 4:18 5:4 6:4 9:3 10:24 11:3 14:4 15:4 16:2 20:2 23:1 24:2 253:0
0 1:4 2:2 3:1 4:1 6:2 7:2 8:1 9:3 17:2 18:1 19:2 21:1 23:1 25:1 28:1 29:1 36:1 42:1 43:1 44:2 45:1 74:1 88:1 97:1 114:2 115:1 116:1 117:1 142:1 153:1 253:0
0 4:6 10:9 253:0
0 4:5 10:4 15:3 20:6 23:1 24:1 34:1 112:2 253:0
0 4:4 5:2 9:3 10:1 11:3 12:4 13:2 15:2 20:2 22:2 23:3 24:4 41:2 68:2 167:2 184:2 253:0
0 1:12 2:12 4:6 5:3 6:4 9:2 10:4 11:1 14:4 15:4 16:1 20:2 62:2 63:1 64:2 92:2 93:1 253:0
0 1:12 2:12 4:4 5:1 6:4 9:4 10:3 11:2 23:2 24:1 26:4 27:2 28:3 29:2 33:2 34:1 35:1 40:1 72:1 88:1 89:1 90:1 91:1 114:2 253:0
0 4:10 5:3 9:5 10:14 11:4 12:2 13:1 15:2 20:3 23:2 24:1 28:3 35:1 41:1 253:0
0 1:11 2:14 4:4 5:3 9:4 10:2 11:6 14:2 15:3 16:1 20:3 253:0
0 1:9 2:8 4:11 5:5 6:2 9:5 10:12 11:2 23:3 24:3 28:3 42:2 43:1 44:2 62:2 74:1 92:1 93:1 97:1 107:1 121:1 253:0
0 1:6 2:6 4:15 6:2 10:14 12:4 13:2 14:2 15:6 16:1 20:8 22:1 23:1 24:1 34:3 112:3 113:3 253:0
0 1:6 2:6 4:3 5:2 6:2 9:5 11:4 12:1 13:1 23:2 24:2 26:2 27:1 28:2 29:2 41:1 62:2 93:1 100:1 106:1 107:1 253:0
0 1:12 2:12 4:5 5:2 6:4 9:2 10:2 11:1 15:1 20:1 23:1 24:1 28:1 74:1 75:1 97:2 253:0
0 4:5 5:2 9:7 10:3 11:4 12:1 13:1 15:5 16:1 20:8 23:2 24:1 28:2 32:1 35:2 38:1 39:2 40:1 41:2 62:2 93:1 100:1 106:1 107:1 109:1 253:0
0 1:6 2:6 4:3 5:2 6:2 9:1 10:2 14:4 15:4 16:2 55:1 253:0
0 1:14 2:15 3:3 4:5 5:1 6:5 7:2 8:1 9:1 14:4 15:4 16:2 20:2 22:2 23:2 24:2 25:1 66:2 253:0
0 1:10 2:9 3:2 4:7 6:6 7:2 8:1 10:4 15:2 20:2 22:1 23:1 24:1 34:3 40:1 72:2 73:1 74:1 75:1 112:3 113:3 253:0
0 1:12 2:12 4:9 5:3 6:4 9:3 10:4 11:3 12:4 13:1 15:5 16:2 20:5 22:1 23:1 24:1 253:0
0 4:9 10:9 12:3 13:1 15:1 20:1 22:1 23:1 24:1 253:0
0 1:12 2:12 4:6 5:7 6:4 9:6 10:1 11:6 15:3 16:1 20:3 253:0
0 1:12 2:12 4:5 5:2 6:4 9:2 10:4 15:1 20:3 23:2 24:2 28:2 88:1 114:2 253:0
0 1:12 2:12 4:5 5:3 6:4 9:3 10:2 11:1 15:2 16:1 20:2 22:1 23:2 24:2 26:4 27:2 28:1 29:2 38:1 40:1 72:2 253:0
0 1:6 2:6 4:5 5:5 9:5 10:2 11:4 23:1 24:1 28:1 29:2 253:0
0 1:10 2:9 3:2 4:6 5:2 6:4 7:2 8:1 9:3 10:4 11:3 12:4 13:1 14:3 15:2 16:1 103:1 253:0
0 1:6 2:6 4:1 6:2 57:1 59:1 60:1 61:2 62:1 63:2 64:2 65:1 92:2 134:1 253:0
0 1:8 2:9 3:3 4:7 5:5 6:3 7:2 8:1 9:4 10:3 11:3 12:2 13:1 15:2 16:1 20:1 22:1 23:1 24:1 25:1 41:1 66:2 253:0
0 1:12 2:12 4:5 5:4 6:2 9:2 10:3 11:1 14:2 15:2 16:1 20:1 253:0
0 1:6 2:6 4:19 5:3 6:4 9:3 10:28 11:3 12:2 13:1 14:4 15:6 16:2 20:8 253:0
0 63:3 65:1 84:2 86:3 140:1 185:3 186:2 253:0
0 4:23 10:28 12:5 13:2 15:5 16:1 20:8 22:2 23:2 24:2 253:0
0 1:10 2:9 3:2 4:6 5:1 6:2 7:2 8:1 9:2 10:5 11:1 14:4 15:4 16:2 20:2 23:1 24:1 26:4 27:2 28:1 29:2 253:0
0 4:6 5:6 9:6 10:2 11:6 15:2 20:2 23:2 24:2 28:2 62:2 63:4 64:4 65:2 83:2 84:2 85:2 86:4 253:0
0 1:16 2:18 3:6 4:6 5:4 6:2 7:4 8:2 9:2 10:5 11:1 14:2 15:3 16:1 20:3 253:0
0 1:14 2:13 3:2 4:7 5:1 6:8 7:2 9:1 10:4 15:1 20:1 22:1 23:1 24:1 25:2 66:1 94:2 95:1 96:1 253:0
0 1:6 2:6 4:11 6:4 10:13 15:1 20:1 22:1 23:1 24:1 253:0
0 1:12 2:12 4:10 5:3 6:12 9:2 10:3 11:1 15:3 16:1 20:5 253:0
0 1:6 2:6 4:4 5:4 6:2 9:5 11:4 12:2 13:1 14:2 15:2 16:1 20:1 22:1 23:1 24:1 29:2 253:0
0 1:12 2:12 4:10 6:4 10:7 14:8 15:8 16:4 20:4 22:4 23:4 24:4 33:4 34:2 253:0
0 1:6 2:6 4:1 5:1 9:3 11:1 15:2 16:1 20:1 26:4 27:2 29:2 32:1 38:1 39:1 40:1 141:1 253:0
0 1:6 2:6 4:12 6:2 10:14 15:3 16:1 20:5 22:1 23:1 24:1 253:0
0 1:14 2:13 3:1 4:8 5:3 6:5 7:1 9:4 10:4 11:2 14:6 15:7 16:3 17:1 19:1 20:3 21:1 23:1 24:1 28:1 29:2 69:1 70:1 71:1 253:0
0 1:12 2:12 4:2 5:1 6:4 9:5 11:2 15:2 20:1 22:1 23:3 24:2 28:3 29:2 32:1 35:1 58:1 59:1 60:1 61:2 62:1 63:2 64:2 65:1 92:2 253:0
0 1:12 2:12 4:2 5:2 9:5 10:1 11:4 23:1 24:1 26:2 27:1 28:1 29:6 253:0
0 1:9 2:8 3:2 4:5 6:6 7:2 8:1 9:3 10:3 11:1 15:2 16:1 20:3 25:2 29:2 32:1 66:2 90:1 91:1 98:1 99:1 187:1 253:0
0 1:22 2:25 3:5 4:2 6:4 7:6 8:3 9:7 11:1 25:2 29:7 36:3 37:1 66:4 253:0
0 1:6 2:6 4:5 6:2 10:2 12:2 13:1 15:8 16:3 20:10 22:1 23:1 24:1 54:2 55:1 253:0
0 1:9 2:8 4:7 5:5 6:3 9:7 10:5 11:9 15:1 20:3 23:1 24:1 28:1 42:2 43:1 44:2 102:1 253:0
0 1:13 2:16 4:3 6:2 10:3 15:1 17:4 18:1 19:2 20:1 22:1 23:1 24:1 26:2 27:1 253:0
0 4:8 5:3 9:2 10:9 11:1 12:2 13:1 15:2 20:2 22:2 23:2 24:2 253:0
0 1:7 2:5 3:4 4:3 5:2 6:5 7:4 8:2 9:2 23:1 24:1 25:1 28:1 62:2 66:2 93:1 100:1 107:2 253:0
0 1:16 2:15 3:2 4:8 5:1 6:6 7:2 8:1 9:1 10:5 12:3 13:1 15:1 20:1 22:1 23:1 24:1 26:2 27:1 58:1 59:1 60:1 61:2 62:1 63:2 64:2 65:1 92:2 253:0
0 1:6 2:6 4:4 5:1 6:2 9:1 10:3 12:2 13:1 33:2 34:2 179:1 253:0
0 1:12 2:12 4:5 5:2 6:6 9:2 10:2 11:1 15:1 20:1 22:1 23:2 24:2 28:1 30:2 31:1 33:2 34:1 40:1 72:2 88:1 89:1 114:2 253:0
0 1:6 2:6 4:4 5:3 9:2 10:2 11:1 14:4 15:5 16:2 20:3 253:0
0 1:6 2:6 4:2 5:2 6:2 9:4 11:1 12:2 13:1 23:1 24:1 28:1 31:1 35:1 38:1 39:2 40:1 41:1 124:1 173:1 253:0
0 1:10 2:9 3:2 4:9 5:2 6:3 7:2 8:1 9:3 10:6 11:1 15:3 16:1 20:4 25:1 26:4 27:2 29:2 253:0
0 1:12 2:12 4:5 5:3 6:4 9:4 10:1 11:2 12:2 13:1 14:6 15:7 16:3 20:3 23:1 24:1 28:1 29:2 253:0
0 1:6 2:6 4:14 5:3 6:2 9:4 10:16 11:6 15:3 16:1 20:6 253:0
0 9:4 11:2 15:1 32:1 35:1 98:1 99:2 253:0
0 1:10 2:8 3:4 4:5 5:4 6:9 7:6 8:2 9:2 10:3 11:1 23:1 24:1 25:1 28:1 33:2 34:1 37:1 94:2 95:1 253:0
0 1:6 2:6 4:3 5:4 6:2 9:6 10:1 11:1 15:1 20:1 26:4 27:2 35:3 38:2 39:4 40:2 74:1 75:1 97:2 253:0
0 4:3 5:2 9:2 10:2 11:1 23:2 24:2 28:2 253:0
0 4:5 10:4 12:2 13:1 15:2 16:1 20:2 22:1 23:1 24:1 90:1 91:1 253:0
0 1:13 2:14 3:1 4:7 5:5 6:1 7:1 9:8 10:5 11:7 17:2 19:1 23:1 25:1 28:2 29:4 33:2 34:1 35:1 69:1 70:1 71:1 253:0
0 1:6 2:6 4:6 5:3 6:4 9:2 10:3 11:1 15:2 20:3 23:2 24:3 27:2 28:1 76:2 104:1 253:0
0 1:6 2:6 4:16 5:9 6:2 9:5 10:14 11:4 15:3 16:1 20:3 22:2 23:3 24:3 28:1 253:0
0 1:12 2:12 4:3 5:1 6:6 9:3 11:1 23:1 24:1 28:1 29:4 253:0
0 4:22 10:25 12:5 13:2 15:5 16:1 20:8 22:2 23:2 24:2 253:0
0 1:6 2:6 4:5 5:6 9:5 10:2 11:2 29:2 58:3 59:2 60:2 61:4 62:2 63:4 64:4 65:2 92:2 253:0
0 1:6 2:6 4:13 5:2 6:2 9:3 10:14 11:3 15:3 16:1 20:6 22:1 23:1 24:1 253:0
0 4:4 5:4 9:8 11:4 23:2 27:2 28:4 35:2 62:2 76:2 88:2 107:2 114:4 116:2 139:2 140:1 188:2 253:0
0 1:6 2:6 4:9 5:2 6:4 9:2 10:11 11:1 23:3 24:4 28:2 253:0
0 4:6 5:2 9:2 10:4 11:1 15:1 20:1 22:1 23:2 24:2 28:1 253:0
0 1:7 2:6 3:2 4:7 5:2 6:5 7:4 8:2 9:1 10:4 15:2 16:1 20:2 22:1 23:1 24:1 25:1 37:1 66:2 253:0
0 1:6 2:6 4:1 14:2 15:3 16:1 20:2 26:2 27:1 253:0
0 1:6 2:6 4:6 5:4 6:2 9:4 10:3 11:2 14:2 15:5 16:2 20:3 22:1 23:1 28:1 32:1 253:0
0 4:8 5:2 9:4 10:11 11:2 12:1 13:1 23:3 24:2 28:4 35:1 253:0
0 1:10 2:9 3:2 4:3 5:1 6:4 7:2 8:1 9:1 14:2 15:3 16:1 20:2 22:1 23:2 24:2 28:1 40:1 72:1 88:1 89:1 114:1 253:0
0 1:6 2:6 4:2 5:4 9:5 11:2 29:2 38:1 39:1 40:1 72:1 253:0
0 1:6 2:6 4:13 5:6 6:2 9:7 10:9 11:6 12:7 13:3 23:2 24:3 28:1 33:2 34:1 38:1 39:1 40:1 41:2 72:1 253:0
0 1:8 2:5 3:7 4:6 5:2 6:5 7:7 8:3 9:3 10:1 11:3 15:4 16:2 20:3 25:3 29:2 37:1 94:3 95:1 253:0
0 1:6 2:6 4:6 5:2 6:2 9:3 10:2 11:3 15:4 16:1 20:6 22:1 23:1 24:1 29:2 253:0
0 1:6 2:6 4:7 5:5 6:2 9:6 10:2 11:4 14:2 15:2 16:1 20:2 23:2 24:3 26:2 27:1 28:1 29:2 253:0
0 1:11 2:9 3:4 4:6 5:1 6:5 7:6 8:3 9:4 10:7 11:3 23:1 24:1 25:1 26:2 27:1 28:1 37:1 62:2 66:2 92:2 93:1 110:2 253:0
0 1:12 2:12 4:5 5:1 6:4 9:3 10:3 11:3 15:4 16:2 20:6 22:1 23:1 24:1 118:1 119:1 253:0
0 1:6 2:6 4:10 5:9 6:2 9:6 10:6 11:4 12:2 13:1 15:6 16:3 20:4 22:3 23:4 24:3 28:2 54:2 55:1 62:2 93:1 100:1 107:4 253:0
0 4:22 10:35 12:1 13:1 15:4 16:1 20:6 22:1 23:2 24:3 253:0
0 1:6 2:6 4:17 5:3 6:4 9:3 10:22 11:3 14:2 15:1 23:1 24:2 253:0
0 1:6 2:6 4:2 5:2 9:3 11:1 26:2 27:1 29:2 34:3 35:1 58:1 59:2 60:2 61:4 62:4 63:4 64:4 65:2 92:4 93:1 107:2 112:3 113:3 253:0
0 1:12 2:12 4:9 5:6 6:4 9:6 10:7 11:4 23:1 24:1 28:1 29:2 33:2 34:1 74:1 97:1 115:1 116:1 117:1 253:0
0 4:5 5:2 9:8 10:4 11:12 253:0
0 4:24 10:36 12:3 13:1 15:1 20:3 23:1 24:2 118:2 119:1 253:0
0 4:6 5:3 9:3 10:6 11:3 12:1 13:1 23:1 24:2 41:1 253:0
0 1:6 2:6 4:8 5:4 6:2 7:4 8:1 9:6 10:4 11:4 14:2 15:2 16:1 20:1 25:2 36:2 37:2 62:2 63:2 64:4 65:1 66:1 93:1 94:2 95:1 96:1 107:1 253:0
0 1:12 2:12 4:8 5:5 6:6 9:3 10:5 11:3 14:2 15:3 16:1 20:2 22:1 23:2 24:2 26:2 27:1 28:1 33:2 34:1 253:0
0 4:18 10:19 12:4 13:3 15:5 16:1 20:8 22:1 23:1 24:1 178:1 253:0
0 1:6 2:6 4:3 5:1 9:6 10:1 11:2 15:2 16:1 22:1 23:1 28:1 29:4 32:1 35:1 38:1 39:2 40:1 62:3 63:2 64:2 65:1 74:1 84:1 85:1 86:2 92:2 93:1 97:1 107:2 115:1 116:1 117:1 253:0
0 1:1 3:2 4:9 5:2 6:1 7:2 9:3 10:6 11:3 12:3 13:1 25:1 62:2 92:1 93:1 107:1 110:1 174:2 176:2 189:1 253:0
0 62:1 63:2 64:2 65:1 190:1 191:1 192:2 253:0
0 1:4 2:3 3:2 4:7 5:2 6:2 7:2 8:1 9:2 10:9 11:1 23:2 24:2 28:2 253:0
0 1:6 2:6 4:14 5:6 6:2 9:5 10:15 11:4 15:1 20:1 22:1 23:3 24:3 26:4 27:2 28:2 253:0
0 1:6 2:6 4:2 5:1 6:2 9:3 11:1 14:4 15:4 16:2 20:2 35:1 39:2 40:1 253:0
0 4:24 10:34 12:3 13:1 15:1 20:3 23:3 24:4 62:4 93:2 107:6 109:2 253:0
0 4:9 10:10 12:3 13:1 15:2 20:5 253:0
0 1:12 2:12 4:10 5:4 6:4 9:2 10:8 11:1 14:2 15:3 16:1 20:3 23:1 24:2 253:0
0 4:18 5:9 9:10 10:20 11:9 23:4 24:3 28:5 35:1 74:1 97:1 253:0
0 1:8 2:9 4:7 5:4 6:3 9:2 10:5 11:1 15:1 17:3 18:1 19:2 20:2 21:1 253:0
0 1:8 2:7 3:2 4:2 6:4 7:4 8:2 9:2 10:1 14:4 15:4 16:2 29:1 36:3 37:1 62:2 92:2 93:1 253:0
0 1:3 2:2 4:2 5:2 6:1 9:5 11:2 17:2 18:1 19:2 21:1 29:1 35:1 40:1 72:1 74:1 88:1 89:1 97:1 98:1 99:2 114:2 115:1 116:1 117:1 153:1 253:0
0 1:10 2:9 3:2 4:8 5:7 6:7 7:2 8:1 9:6 10:3 11:4 23:1 24:1 25:1 28:1 29:2 33:4 34:5 90:1 91:1 112:3 113:3 253:0
0 1:12 2:12 4:1 5:2 9:6 11:3 14:4 15:2 16:1 23:2 24:1 26:4 27:2 28:3 29:2 35:1 62:2 63:2 64:4 65:1 88:1 92:2 93:1 114:4 253:0
0 4:20 10:30 12:5 13:2 15:3 16:1 20:5 22:1 23:2 24:3 27:1 76:1 133:1 253:0
0 1:13 2:11 3:4 4:2 5:1 6:5 7:4 8:2 9:2 11:1 14:3 15:4 16:2 25:1 33:2 34:1 59:1 60:1 61:2 62:1 63:2 64:2 65:1 92:2 103:1 122:2 253:0
0 4:21 10:30 12:5 13:2 15:1 20:3 23:2 24:4 253:0
0 1:7 2:6 3:2 4:4 5:2 6:3 7:4 8:2 9:3 10:1 11:1 25:3 29:2 37:1 38:1 39:1 40:1 253:0
0 1:8 2:6 3:4 4:2 5:2 6:4 7:4 8:2 9:2 11:1 253:0
0 1:6 2:6 4:6 6:4 10:4 14:2 15:3 16:1 20:3 22:1 23:1 24:1 253:0
0 1:6 2:6 4:9 5:5 6:2 9:8 10:3 11:7 12:4 13:1 14:2 15:6 16:3 20:5 22:1 23:2 24:1 28:2 29:2 35:1 253:0
0 4:18 5:4 9:6 10:15 11:7 15:1 20:1 22:1 23:2 24:2 28:1 253:0
0 1:6 2:6 4:4 5:2 6:4 9:1 10:2 253:0
0 1:8 2:7 3:2 4:6 5:5 6:4 7:2 9:6 10:1 11:6 25:2 29:2 94:2 95:1 253:0
0 1:6 2:6 4:9 5:3 6:2 9:3 10:6 11:3 14:2 15:4 16:2 20:3 22:1 23:1 24:1 30:4 31:2 253:0
0 4:6 15:8 16:2 20:8 51:4 53:2 62:2 82:4 107:2 108:2 129:4 130:2 145:2 146:2 147:4 193:2 253:0
0 1:12 2:12 4:4 5:2 6:6 9:2 10:3 11:1 14:8 15:4 253:0
0 1:6 2:6 4:10 5:13 6:2 9:8 10:7 11:7 14:2 15:2 20:1 22:1 23:3 24:3 28:2 35:1 62:2 93:1 100:1 107:4 253:0
0 1:10 2:9 3:2 4:6 5:5 6:1 7:2 8:1 9:6 10:3 11:6 25:1 29:2 253:0
0 1:6 2:6 4:14 5:4 6:2 9:3 10:13 11:3 14:2 15:2 16:1 23:1 24:2 253:0
0 4:17 10:18 12:6 13:3 15:4 16:1 20:5 22:1 23:2 24:3 253:0
0 1:12 2:12 4:6 5:5 6:4 9:5 10:2 11:4 15:3 16:1 20:4 23:1 24:1 28:1 29:2 32:1 253:0
0 1:2 2:1 3:5 4:2 5:1 7:8 8:4 9:2 12:2 13:1 15:4 16:2 20:3 29:1 32:1 34:1 36:1 37:3 47:1 48:1 49:2 50:1 51:2 52:2 53:1 55:1 66:2 112:1 151:1 179:1 253:0
0 1:9 2:9 3:5 4:7 5:5 6:2 7:6 8:3 9:9 10:3 11:7 14:2 15:3 16:1 20:3 23:2 24:1 25:2 28:3 29:1 35:1 36:1 37:1 66:2 253:0
0 1:6 2:6 4:9 5:5 6:4 9:5 10:5 11:4 14:2 15:2 16:1 23:1 24:1 28:1 29:2 253:0
0 1:12 2:12 4:5 5:5 6:2 9:6 10:1 11:6 15:2 20:3 26:4 27:2 29:2 40:1 72:1 73:1 74:1 75:1 253:0
0 1:3 2:2 4:3 5:1 6:1 9:3 10:1 11:1 15:2 16:1 17:2 18:1 19:2 20:2 21:1 22:1 23:1 28:1 29:1 32:1 40:1 72:1 74:1 88:1 89:1 97:1 114:2 115:1 116:1 117:1 153:1 253:0
0 1:12 2:12 4:7 6:4 10:7 14:4 15:6 16:2 20:5 22:1 23:1 24:1 253:0
0 1:11 2:14 4:4 5:2 6:2 9:2 10:2 11:1 15:4 16:2 20:7 55:1 253:0
0 1:12 2:12 4:4 5:3 6:4 9:4 10:2 11:3 15:1 20:1 26:4 27:2 29:2 38:1 40:1 72:2 253:0
0 1:6 2:6 4:8 5:5 6:4 9:5 10:4 11:4 15:1 20:1 23:1 24:1 28:1 29:2 253:0
0 1:9 2:8 4:12 5:3 6:4 9:3 10:8 11:3 15:4 16:1 20:5 22:1 23:2 24:2 28:1 29:2 42:2 43:1 44:2 102:2 253:0
0 1:6 2:6 4:5 5:3 6:2 9:3 11:3 14:2 15:4 16:2 20:3 22:1 23:1 24:1 253:0
0 1:8 2:9 3:3 4:11 5:5 6:3 7:2 8:1 9:4 10:11 11:3 12:2 13:1 15:2 16:1 20:1 22:1 23:1 24:1 25:1 41:1 66:2 253:0
0 4:24 10:34 12:5 13:2 15:4 16:1 20:8 22:1 23:3 24:5 34:1 112:3 253:0
0 1:8 2:9 3:3 4:16 5:5 6:4 7:2 8:1 9:4 10:16 11:3 15:4 16:2 20:5 22:1 23:1 24:1 66:2 253:0
0 1:12 2:12 4:5 5:3 6:2 9:5 10:2 11:4 14:2 15:3 16:1 22:1 23:1 28:1 29:2 32:1 40:1 72:2 73:1 74:1 75:1 253:0
0 1:6 2:6 4:4 5:3 6:2 9:2 10:2 11:1 15:1 20:2 23:1 24:1 27:2 28:1 34:1 62:2 63:2 64:4 65:1 76:2 92:2 93:1 104:1 112:1 253:0
0 1:3 2:2 4:2 5:1 6:1 9:4 11:1 17:2 18:1 19:2 21:1 23:1 28:2 29:1 35:1 40:1 72:1 74:1 88:1 89:1 97:1 114:2 115:1 116:1 117:1 153:1 253:0
0 1:14 2:13 3:2 4:11 5:5 6:7 7:2 9:6 10:9 11:4 15:1 20:1 23:2 24:2 25:1 28:2 29:4 66:1 94:2 95:1 96:1 253:0
0 1:13 2:14 3:5 4:4 5:5 6:4 7:6 8:3 9:7 11:6 12:1 13:1 23:1 24:1 26:2 27:1 28:1 29:1 33:4 34:2 36:2 37:1 42:2 43:1 44:2 45:1 142:1 253:0
0 1:12 2:12 4:8 5:6 6:4 9:8 10:3 11:7 14:2 15:3 16:1 20:3 23:1 24:1 28:1 29:4 34:3 112:3 113:3 253:0
0 4:2 5:2 9:1 10:1 15:1 20:1 22:1 23:1 24:1 34:1 112:1 253:0
0 1:12 2:12 4:5 5:4 6:2 9:4 10:2 11:2 14:4 15:5 16:2 20:3 23:1 24:1 28:1 29:2 253:0
0 1:12 2:12 9:4 11:2 29:4 88:2 114:4 128:1 154:2 253:0
0 1:6 2:6 4:11 5:5 6:4 9:5 10:7 11:2 15:5 16:2 20:4 22:2 23:3 24:2 28:2 32:1 39:1 40:2 72:3 73:1 74:1 75:1 253:0
0 1:6 2:6 4:1 6:2 7:4 8:1 9:1 26:4 27:2 36:2 37:2 40:1 72:1 87:2 88:2 89:1 94:2 95:1 114:1 253:0
0 1:6 2:6 4:10 5:8 6:2 9:8 10:7 11:7 12:2 13:1 15:1 20:1 22:1 23:2 24:3 29:4 33:6 34:3 41:1 253:0
0 1:12 2:12 4:9 5:3 6:6 9:2 10:6 11:1 15:1 20:2 62:2 92:2 93:1 107:1 253:0
0 1:6 2:6 4:4 5:5 9:6 10:2 11:4 23:2 24:2 26:2 27:1 28:2 29:2 35:1 58:1 59:2 60:2 61:4 62:2 63:4 64:4 65:2 92:4 253:0
0 1:6 2:6 4:7 5:4 6:2 9:2 10:5 11:1 14:2 15:3 16:1 20:3 90:1 91:1 253:0
0 1:6 2:6 4:12 5:11 6:2 9:9 10:11 11:9 23:3 24:2 28:3 33:4 34:2 253:0
0 1:6 2:6 4:12 5:8 6:2 9:9 10:9 11:9 14:2 15:2 16:1 23:2 24:2 28:2 253:0
0 4:7 5:12 9:12 11:6 15:2 16:1 20:2 77:12 78:9 79:9 194:9 195:3 196:3 253:0
0 1:12 2:12 4:6 5:3 6:4 9:3 10:2 11:3 14:2 15:4 16:2 20:3 253:0
0 1:6 2:6 4:4 5:3 6:2 9:2 10:2 11:1 14:4 15:4 16:1 20:2 253:0
0 4:2 5:2 9:4 11:2 15:2 20:2 23:1 27:6 28:2 32:2 35:1 76:6 104:6 253:0
0 1:12 2:12 4:5 6:6 10:5 23:2 24:4 30:2 31:1 253:0
0 1:14 2:16 3:2 4:3 6:5 7:2 8:1 9:1 10:1 15:1 20:1 22:1 23:2 24:3 25:1 66:2 253:0
0 1:3 2:2 4:3 5:5 6:1 9:4 10:1 11:2 23:1 24:1 28:1 42:2 43:1 44:2 102:1 253:0
0 1:11 2:14 4:4 6:2 10:3 14:2 15:3 16:1 20:1 22:1 23:2 24:3 253:0
0 1:6 2:6 4:3 6:2 10:2 12:2 13:1 14:2 15:2 16:1 23:1 24:2 54:1 253:0
0 4:12 5:4 9:5 10:12 11:4 23:3 24:2 28:4 35:1 253:0
0 1:6 2:6 4:17 5:3 6:2 9:3 10:25 11:3 15:2 20:4 23:1 24:1 28:1 253:0
0 4:13 5:4 9:3 10:14 11:3 15:1 20:1 22:1 23:3 24:3 28:1 62:2 93:1 107:2 109:1 253:0
0 4:10 10:15 12:3 13:1 23:1 24:2 253:0
0 1:12 2:12 4:2 9:4 11:2 14:4 15:4 16:2 20:2 29:4 35:1 98:1 99:2 253:0
0 1:8 2:6 3:4 4:2 5:2 6:4 7:4 8:2 9:4 23:2 24:2 28:2 35:1 88:2 114:4 253:0
0 4:2 10:1 15:1 20:1 22:1 23:1 24:1 253:0
0 1:4 2:3 3:2 4:2 6:2 7:2 8:1 9:4 11:2 15:4 16:2 20:2 22:2 23:2 25:2 28:2 32:2 253:0
0 1:12 2:12 4:6 5:7 6:2 9:8 10:1 11:7 14:4 15:5 16:2 20:4 23:1 24:1 28:1 29:2 33:2 34:1 253:0
0 1:12 2:12 4:1 5:1 6:2 9:2 11:1 29:2 59:1 60:1 61:2 62:1 63:2 64:2 65:1 92:2 253:0
0 1:3 2:2 4:2 5:1 6:1 9:4 11:1 15:1 17:2 18:1 19:2 20:1 21:1 23:1 28:2 29:1 35:1 40:1 72:1 74:1 88:1 89:1 97:1 114:2 115:1 116:1 117:1 153:1 253:0
0 1:6 2:6 4:9 5:4 6:2 9:2 10:7 11:1 14:2 15:3 16:1 20:3 23:1 24:2 33:2 34:1 253:0
0 1:6 2:6 4:3 5:4 6:2 9:4 10:1 11:3 38:1 39:1 40:1 62:2 93:1 100:1 107:1 149:1 253:0
0 4:23 10:35 12:5 13:2 15:3 20:6 23:2 24:4 27:1 34:2 76:1 112:5 133:1 253:0
0 1:12 2:12 4:11 5:4 6:6 9:3 10:7 11:3 15:6 16:1 20:9 33:2 34:1 253:0
0 1:8 2:7 3:6 4:6 5:1 6:3 7:6 8:2 9:1 10:5 23:1 24:1 25:3 28:1 37:1 40:1 72:2 88:1 89:1 94:2 95:1 114:1 253:0
0 1:6 2:6 4:9 5:2 6:2 9:3 10:6 11:1 12:6 13:2 15:4 16:2 20:3 22:2 23:3 24:4 29:2 41:2 74:1 97:1 115:1 116:1 117:1 253:0
0 1:10 2:9 3:6 4:4 6:7 7:6 8:3 15:2 16:1 20:1 22:1 23:1 24:1 25:1 37:1 62:2 63:1 64:2 93:1 107:1 110:2 253:0
0 1:12 2:12 4:3 6:6 14:2 15:3 16:1 20:2 22:2 23:2 24:2 33:2 34:1 253:0
0 1:6 2:6 4:7 5:3 6:4 9:2 10:3 11:1 12:2 13:1 14:2 15:3 16:1 20:3 253:0
0 1:6 2:6 4:6 5:1 6:2 9:1 10:4 14:2 15:2 16:1 20:1 23:1 24:1 28:1 253:0
0 4:25 10:35 12:5 13:2 15:6 16:2 20:10 23:2 24:4 55:1 253:0
0 4:3 12:4 13:2 15:1 20:1 22:1 23:1 24:1 253:0
0 4:21 10:23 12:5 13:2 15:5 16:2 20:8 22:2 23:2 24:2 253:0
0 4:30 10:42 12:3 13:1 15:8 16:3 20:13 22:1 23:1 24:1 55:1 253:0
0 1:6 2:6 4:6 5:2 9:5 10:8 11:4 23:3 24:2 28:4 29:2 35:1 253:0
0 1:14 2:15 3:3 4:9 5:12 6:4 7:2 8:1 9:11 10:4 11:10 23:2 24:2 28:2 253:0
0 1:12 2:12 4:8 5:4 6:6 9:4 10:6 11:2 14:2 15:6 16:3 20:2 22:2 23:3 24:2 28:2 32:1 39:1 40:1 72:1 253:0
0 4:11 5:3 9:2 10:11 11:1 253:0
0 1:6 2:6 4:8 5:3 6:2 9:3 10:2 11:3 14:4 15:6 16:3 20:4 22:1 23:2 24:2 28:1 253:0
0 1:4 2:3 3:2 4:6 5:1 6:2 7:2 8:1 9:2 10:5 11:1 25:2 62:2 93:1 98:1 99:1 107:4 152:1 253:0
0 1:6 2:6 4:13 5:4 6:4 9:3 10:17 11:3 14:2 15:1 253:0
0 1:1 3:2 4:6 5:6 6:2 7:2 9:4 10:2 11:2 23:2 24:2 25:2 28:2 69:2 70:2 74:1 105:1 197:1 198:1 253:0
0 1:7 2:6 3:6 4:8 5:7 6:2 7:4 8:2 9:5 10:5 11:4 15:2 20:2 22:2 23:4 24:4 25:2 28:2 62:2 93:1 100:1 107:4 253:0
0 1:12 2:12 4:9 5:7 6:6 9:7 10:6 11:6 23:1 24:1 28:1 29:2 74:1 97:1 115:1 116:1 117:1 253:0
0 4:5 5:2 9:1 10:2 12:3 13:1 15:1 20:1 22:1 23:1 24:1 62:2 93:1 107:2 253:0
0 4:5 10:4 15:5 16:2 20:7 253:0
0 1:6 2:6 4:8 5:5 6:2 9:3 10:5 11:3 14:2 15:3 16:1 20:2 22:1 23:1 24:1 253:0
0 1:12 2:12 4:9 5:3 6:4 9:4 10:5 11:2 14:8 15:9 16:4 20:4 23:2 24:3 28:1 29:2 253:0
0 1:6 2:6 4:5 5:5 6:2 9:6 10:3 11:4 14:4 15:4 16:2 23:1 24:1 28:1 58:1 59:1 60:1 61:2 62:1 63:2 64:2 65:1 92:2 253:0
0 1:12 2:12 4:7 5:2 6:6 9:3 10:4 11:3 12:4 13:1 62:2 90:1 91:1 92:4 93:1 253:0
0 1:6 2:6 4:8 5:6 9:6 10:5 11:6 23:1 24:1 28:1 29:2 253:0
0 1:15 2:14 4:5 5:5 6:6 9:6 10:2 11:4 17:2 18:1 19:2 23:1 24:1 28:1 29:2 33:2 34:1 38:1 40:1 72:2 253:0
0 1:12 2:12 4:7 5:2 6:4 9:2 10:4 11:1 15:2 16:1 20:2 22:1 23:3 24:3 28:1 62:2 93:1 107:2 109:1 253:0
0 1:19 2:19 3:5 4:3 5:2 6:4 7:4 8:2 9:4 11:2 15:2 16:1 20:2 22:1 23:2 24:2 26:2 27:1 28:1 29:4 253:0
0 1:6 2:6 4:1 6:2 9:2 29:2 34:3 38:1 39:1 40:1 58:1 59:2 60:2 61:4 62:2 63:4 64:4 65:2 92:4 112:3 113:3 253:0
0 1:6 2:6 4:12 5:4 6:2 9:3 10:11 11:3 15:6 16:3 20:9 22:2 23:2 24:2 253:0
0 1:12 2:12 4:9 5:2 6:4 9:3 10:10 11:3 15:2 16:1 20:3 22:1 23:1 24:1 253:0
0 1:6 2:6 4:4 5:3 6:2 9:4 10:1 11:3 15:2 20:3 23:1 24:1 28:1 29:2 38:1 39:1 40:1 72:1 253:0
0 1:10 2:12 3:3 4:5 5:3 6:5 7:2 8:1 9:3 10:1 11:3 25:1 33:2 34:1 42:3 43:1 44:2 253:0
0 1:14 2:15 3:3 4:4 5:5 6:2 7:2 8:1 9:6 10:1 11:6 14:6 15:6 16:3 29:2 55:1 253:0
0 1:12 2:12 4:3 5:2 6:2 9:5 10:1 11:4 14:2 15:4 16:2 20:3 22:1 23:1 26:2 27:1 28:1 29:2 32:1 253:0
0 1:12 2:12 4:7 5:4 9:6 10:6 11:6 14:2 15:3 16:1 20:2 29:4 62:2 92:4 93:1 253:0
0 1:6 2:6 4:5 5:3 6:2 9:1 10:6 253:0
0 1:6 2:6 4:13 5:4 6:2 9:2 10:16 11:1 14:4 15:5 16:2 20:4 22:2 23:2 24:2 253:0
0 4:25 10:36 12:5 13:2 15:5 16:2 20:7 22:1 23:3 24:5 34:1 112:3 253:0
0 1:9 2:10 3:3 4:8 5:4 7:2 8:1 9:4 10:5 11:2 12:3 13:1 14:2 15:4 16:2 20:2 22:1 23:1 24:1 29:2 41:1 253:0
0 1:6 2:6 4:1 6:2 26:2 27:1 59:2 60:2 61:4 62:2 63:4 64:4 65:2 92:4 253:0
0 4:2 5:2 9:4 11:6 15:2 20:2 22:1 23:1 24:1 253:0
0 1:6 2:6 4:2 6:2 9:2 35:1 40:1 62:2 63:2 64:4 65:1 72:1 88:1 89:1 92:2 93:1 98:1 99:2 107:1 114:1 253:0
0 1:10 2:9 3:6 4:1 6:2 7:6 8:3 9:1 14:1 15:2 16:1 20:1 26:2 27:1 37:1 66:2 103:1 253:0
0 1:6 2:6 4:10 5:10 6:2 9:8 10:5 11:7 14:4 15:6 16:3 20:2 22:1 23:3 24:3 28:2 62:2 93:1 100:1 107:4 253:0
0 1:6 2:6 4:15 5:3 6:2 9:3 10:16 11:3 15:2 16:1 20:2 22:1 23:2 24:3 253:0
0 1:12 2:12 4:7 5:2 6:8 9:3 10:5 11:3 14:4 15:3 16:1 20:1 26:2 27:1 30:2 31:1 253:0
0 1:8 2:9 4:8 6:2 10:5 12:2 13:1 14:4 15:12 16:4 17:3 18:1 19:2 20:13 23:1 24:2 54:1 55:1 253:0
0 1:10 2:9 3:2 4:9 5:3 6:2 7:2 8:1 9:8 10:9 11:5 23:2 28:4 29:1 35:2 36:1 58:1 59:1 60:1 61:2 62:1 63:2 64:2 65:1 92:2 253:0
0 1:12 2:12 4:10 5:6 6:4 9:6 10:9 11:6 15:2 16:1 20:2 23:1 24:1 28:1 253:0
0 1:6 2:6 4:1 5:1 9:4 11:3 26:2 27:1 29:4 39:1 40:1 62:2 93:1 100:1 107:1 149:1 253:0
0 1:6 2:6 4:1 5:2 9:3 11:1 26:2 27:4 29:2 35:1 58:1 59:2 60:2 61:4 62:2 63:4 64:4 65:2 76:3 92:4 104:3 253:0
0 4:5 5:2 9:5 10:3 11:3 12:1 13:1 15:5 16:1 20:8 23:1 28:2 32:1 35:1 38:1 39:1 40:1 41:1 50:1 51:3 52:3 53:3 72:1 82:2 253:0
0 1:12 2:12 4:4 5:1 6:4 9:5 10:2 11:4 12:3 13:1 29:4 253:0
0 1:6 2:6 4:5 5:2 6:2 9:4 10:1 11:3 12:6 13:3 23:1 28:2 35:1 38:1 40:1 41:1 72:2 253:0
0 1:6 2:6 4:11 5:3 6:2 9:7 10:12 11:5 14:2 15:3 16:1 20:1 22:1 23:1 28:1 29:2 32:2 74:1 75:1 97:2 253:0
0 1:12 2:12 4:8 5:1 6:6 9:3 10:10 11:3 23:1 24:2 253:0
0 1:12 2:12 4:4 5:1 6:2 9:2 11:1 14:4 15:6 16:3 20:4 22:2 23:3 24:3 28:1 29:2 253:0
0 1:12 2:12 4:6 6:4 10:4 12:4 13:1 14:4 15:5 16:2 20:1 22:1 23:1 24:1 90:1 91:1 253:0
0 1:12 2:12 4:9 5:3 6:4 9:3 10:8 11:3 15:2 16:1 20:2 22:1 23:1 24:1 253:0
0 1:13 2:14 3:3 4:10 5:5 6:8 7:2 9:4 10:7 11:3 15:2 20:4 23:1 24:1 26:3 27:2 28:1 66:1 94:2 95:1 96:1 132:1 253:0
0 1:9 2:8 4:5 5:3 6:4 9:6 10:1 11:3 14:2 15:2 17:2 18:1 19:2 20:2 21:2 35:1 39:2 40:1 59:1 60:1 61:2 62:3 63:2 64:2 65:1 93:1 107:2 199:1 253:0
0 1:8 2:9 3:3 4:9 5:5 6:4 7:2 8:1 9:5 10:9 11:4 23:1 24:1 28:1 253:0
0 1:6 2:6 4:9 6:6 10:8 14:2 15:1 253:0
0 1:9 2:10 3:3 4:2 5:2 7:2 8:1 9:6 11:4 15:2 16:1 20:2 29:4 35:1 39:2 40:1 74:1 97:1 115:1 116:1 117:1 253:0
0 1:1 3:2 4:11 5:6 6:1 7:4 8:2 9:7 10:9 11:6 23:2 24:1 25:3 28:3 29:1 35:1 36:1 37:1 253:0
0 1:6 2:6 4:9 5:7 6:4 9:6 10:7 11:4 29:2 38:1 39:1 40:1 72:1 253:0
0 4:4 5:4 9:4 10:2 11:3 23:1 24:1 28:1 38:1 39:1 40:1 62:2 93:1 100:1 107:1 149:1 253:0
0 1:6 2:6 4:9 5:5 6:2 9:6 10:11 11:3 23:3 24:2 28:4 35:1 253:0
0 1:6 2:6 4:7 5:6 6:2 9:5 10:4 11:4 14:2 15:2 16:1 23:1 24:1 28:1 59:1 60:1 61:2 62:1 63:2 64:2 65:1 92:2 253:0
0 1:12 2:12 4:6 5:3 6:4 9:3 10:2 11:3 15:2 16:1 20:3 22:1 23:1 24:1 253:0
0 1:12 2:12 4:7 6:6 10:4 15:3 20:6 23:1 24:2 62:4 90:1 91:1 92:2 93:2 107:3 164:1 253:0
0 1:12 2:12 4:9 5:7 6:2 9:8 10:7 11:7 12:3 13:1 23:1 24:1 28:1 29:2 33:2 34:1 35:1 253:0
0 1:8 2:7 3:1 4:3 5:1 6:1 7:1 9:3 11:1 15:2 16:1 17:1 19:1 20:2 21:1 23:1 24:1 28:1 29:3 36:1 58:1 59:1 60:1 61:2 62:1 63:2 64:2 65:1 69:1 70:1 71:1 92:2 253:0
0 1:6 2:6 4:9 5:3 6:2 9:3 10:8 11:3 14:6 15:6 16:3 23:1 24:2 253:0
0 1:12 2:12 4:4 5:2 6:4 9:3 10:2 11:3 253:0
0 1:6 2:6 4:23 5:7 6:2 9:4 10:34 11:2 12:2 13:1 14:2 15:2 16:1 23:2 24:2 28:2 253:0
0 1:15 2:17 3:2 4:6 5:5 6:2 7:2 8:1 9:6 10:3 11:6 23:1 24:2 29:1 33:2 34:1 36:1 253:0
0 4:26 10:37 12:3 13:1 15:3 16:1 20:6 22:1 23:3 24:5 62:1 107:1 253:0
0 4:16 5:4 9:3 10:14 11:3 15:4 16:2 20:6 118:2 119:1 253:0
0 1:6 2:6 4:9 5:3 6:2 9:3 10:8 11:3 15:5 16:2 20:5 22:1 23:1 24:1 253:0
0 1:12 2:12 4:7 5:5 6:6 9:5 10:3 11:4 23:1 24:1 28:1 253:0
0 1:12 2:12 4:9 5:4 6:4 9:5 10:8 11:4 15:2 16:1 20:4 29:2 58:2 59:1 60:1 61:2 62:1 63:2 64:2 65:1 92:2 253:0
0 1:2 2:1 3:2 4:13 5:6 6:1 7:2 9:7 10:15 11:6 15:2 16:1 20:1 22:1 23:1 25:1 28:1 32:1 66:1 94:2 95:1 96:1 253:0
0 1:7 2:4 3:4 4:10 5:5 6:5 7:6 8:2 9:3 10:9 11:3 15:1 20:3 23:1 24:1 25:2 28:1 37:1 42:2 43:1 44:2 94:2 95:1 102:1 253:0
0 1:6 2:6 4:8 5:6 6:4 9:5 10:4 11:4 14:4 15:3 16:1 23:1 24:1 26:2 27:1 28:1 253:0
0 1:9 2:9 3:4 4:1 6:3 7:8 8:4 9:3 25:1 29:1 36:5 37:3 253:0
0 4:20 10:22 12:2 13:1 15:6 16:2 20:8 22:1 23:2 24:3 253:0
0 1:6 2:6 4:7 5:4 6:2 9:6 10:7 11:6 15:2 16:1 20:2 23:2 24:2 28:2 35:1 253:0
0 1:6 2:6 4:5 5:3 9:3 11:3 14:6 15:6 16:3 20:3 253:0
0 1:9 2:10 3:5 4:2 5:1 7:5 8:2 9:2 11:1 23:1 24:1 25:2 28:1 29:2 37:1 94:3 95:1 253:0
0 1:12 2:12 4:6 5:7 6:4 9:10 10:1 11:8 14:2 15:2 16:1 23:2 24:1 26:2 27:1 28:3 29:2 35:1 253:0
0 1:6 2:6 4:9 5:2 6:2 9:3 10:11 11:3 15:2 16:1 20:2 22:1 23:1 24:1 253:0
0 1:6 2:6 4:12 5:5 6:4 9:3 10:12 11:3 14:4 15:4 16:2 40:1 72:2 73:1 74:1 253:0
0 4:21 10:22 12:3 13:1 15:5 16:1 20:7 22:1 23:1 24:1 118:4 119:2 253:0
0 1:6 2:6 4:16 5:4 6:4 9:3 10:22 11:3 14:2 15:1 253:0
0 1:12 2:12 4:3 5:1 6:4 9:1 10:1 15:2 16:1 20:3 33:4 34:2 253:0
0 1:12 2:12 4:10 5:3 6:4 9:2 10:11 11:1 15:2 16:1 20:2 22:1 23:1 24:1 253:0
0 1:6 2:6 4:1 9:2 11:1 15:3 16:1 20:2 22:1 23:1 28:1 29:2 32:1 59:1 60:1 61:2 62:1 63:2 64:2 65:1 92:2 253:0
0 1:8 2:9 4:3 5:3 6:2 9:3 11:3 27:1 30:2 31:1 42:3 43:1 44:2 76:1 253:0
0 1:6 2:6 4:3 5:2 9:3 10:1 11:1 12:2 13:1 23:1 24:1 28:1 29:2 40:1 41:1 72:2 88:1 89:1 114:2 253:0
0 1:8 2:9 3:3 4:12 5:4 6:3 7:2 8:1 9:3 10:14 11:3 14:2 15:1 25:1 253:0
0 1:6 2:6 4:9 5:4 6:2 9:2 10:7 11:1 12:2 13:1 14:4 15:6 16:3 20:4 22:1 23:1 24:1 54:1 253:0
0 1:12 2:12 4:2 5:2 6:2 9:3 10:1 11:1 26:2 27:1 29:2 33:2 34:1 35:1 58:1 59:2 60:2 61:4 62:2 63:4 64:4 65:2 92:4 253:0
0 1:12 2:12 4:10 5:5 6:6 9:8 10:7 11:5 23:3 24:1 28:5 35:2 58:1 59:1 60:1 61:2 62:1 63:2 64:2 65:1 92:2 253:0
0 1:6 2:6 4:13 10:12 12:6 13:3 14:2 15:7 16:2 20:8 22:1 23:1 24:1 26:2 27:1 253:0
0 1:7 2:6 3:2 7:2 9:2 14:1 15:2 16:1 29:3 36:1 58:1 59:1 60:1 61:2 62:1 63:2 64:2 65:1 92:2 103:1 174:2 176:2 189:1 253:0
0 1:6 2:6 4:9 5:3 6:2 9:4 10:5 11:3 15:2 16:1 20:2 22:1 23:1 24:1 29:2 253:0
0 1:8 2:7 3:2 4:6 5:6 6:4 7:4 8:2 9:9 10:3 11:7 23:2 24:1 28:3 29:3 34:3 35:1 36:3 37:1 112:3 113:3 253:0
0 1:13 2:14 3:3 4:7 5:2 6:6 7:6 8:1 9:5 10:5 11:2 23:1 24:1 25:2 28:1 29:2 34:2 36:2 37:2 66:1 94:4 95:2 96:1 112:2 113:1 253:0
0 1:13 2:12 3:1 4:1 5:2 7:2 8:1 9:8 11:5 26:2 27:1 29:7 33:4 34:2 36:1 42:1 43:1 44:2 45:1 58:1 59:1 60:1 61:2 62:1 63:2 64:2 65:1 92:2 253:0
0 1:6 2:6 4:5 5:1 6:2 9:1 10:5 14:4 15:5 16:2 20:1 23:1 24:1 28:1 40:1 72:2 88:1 89:1 114:1 253:0
0 1:7 2:6 3:2 4:6 5:2 6:5 7:4 8:2 9:1 10:4 25:1 37:1 66:2 90:1 91:1 253:0
0 4:2 10:1 253:0
0 1:6 2:6 4:7 5:3 6:2 9:2 10:4 11:1 14:4 15:6 16:2 20:6 74:2 75:1 116:1 117:2 159:1 253:0
0 1:6 2:6 4:5 5:2 9:2 10:3 11:1 14:4 15:4 16:2 20:3 253:0
0 1:7 2:6 3:2 4:6 6:4 7:4 8:2 9:2 10:7 14:2 15:2 20:2 25:2 29:1 36:1 37:1 66:2 74:1 97:1 115:1 116:1 117:1 253:0
0 1:6 2:6 4:9 5:2 6:2 9:2 10:10 11:1 14:2 15:3 16:1 20:1 23:1 24:1 28:1 253:0
0 1:6 2:6 4:4 5:1 6:2 9:6 10:2 11:6 12:2 13:1 15:1 20:1 22:1 23:3 24:3 28:1 29:4 41:1 62:2 92:2 93:1 100:1 109:1 253:0
0 1:12 2:12 4:2 5:2 9:4 11:2 23:2 24:2 28:2 29:4 62:2 63:2 64:4 65:1 92:4 93:1 253:0
0 1:11 2:14 4:10 5:2 6:2 9:3 10:4 11:3 12:3 13:1 15:8 16:4 20:7 22:1 23:1 24:1 29:2 90:1 91:1 253:0
0 1:6 2:6 3:2 4:11 5:4 6:6 7:2 8:1 9:5 10:6 11:4 17:2 18:1 19:2 21:1 23:2 24:2 25:1 28:2 29:2 136:1 253:0
0 1:6 2:6 4:3 5:4 6:2 9:5 10:1 11:3 29:2 38:1 39:1 40:1 62:2 74:1 93:1 97:1 100:1 107:1 115:1 116:1 117:1 149:1 253:0
0 1:12 2:12 4:5 5:5 6:2 9:6 10:1 11:6 12:2 13:1 15:4 16:2 20:2 22:2 23:1 29:2 33:2 34:1 54:2 55:1 253:0
0 4:3 10:3 15:2 16:1 20:2 27:1 34:4 76:2 111:1 112:8 113:1 181:1 253:0
0 1:6 2:6 14:2 15:3 26:4 27:2 51:3 53:3 67:2 68:1 82:3 129:3 130:1 253:0
0 1:11 2:14 4:3 6:2 14:4 15:4 16:2 20:2 22:2 23:2 24:2 253:0
0 1:6 2:6 4:7 5:4 6:2 9:5 10:2 11:4 15:2 16:1 20:2 22:1 23:1 24:1 29:2 253:0
0 1:1 3:2 4:1 7:4 8:2 9:2 25:2 29:1 36:1 37:1 66:2 74:1 97:1 115:1 116:1 117:1 253:0
0 1:2 3:4 4:1 6:1 7:4 8:2 15:1 20:1 22:1 23:1 24:1 25:1 253:0
0 1:12 2:12 4:3 6:2 9:3 10:3 11:3 14:2 15:3 16:1 20:1 22:1 23:1 24:1 29:4 62:2 92:4 93:1 253:0
0 1:12 2:12 4:9 6:6 10:9 14:2 15:3 16:1 20:4 22:1 23:1 24:1 253:0
0 4:13 10:12 15:1 20:1 22:1 23:1 24:1 253:0
0 1:6 2:6 4:9 5:5 6:2 9:5 10:4 11:4 14:2 15:4 16:2 20:3 22:1 23:2 24:2 28:1 253:0
0 1:4 2:3 3:2 4:4 5:4 6:3 7:2 8:1 9:3 10:1 11:3 14:1 15:2 16:1 25:1 90:1 91:1 103:1 253:0
0 1:6 2:6 4:14 6:4 10:19 12:3 13:1 14:2 15:1 23:1 24:2 253:0
0 4:2 5:2 9:4 10:1 11:3 46:2 47:2 48:2 49:4 50:2 51:4 52:4 53:2 123:2 166:1 253:0
0 1:6 2:6 4:7 5:1 6:2 9:2 10:4 11:1 14:4 15:4 16:2 20:2 23:2 24:1 28:2 62:2 93:1 100:1 107:2 109:1 253:0
0 4:21 10:31 12:1 13:1 15:7 16:2 20:16 22:1 23:2 24:3 253:0
0 1:17 2:20 4:4 5:4 6:4 9:7 11:4 15:2 16:1 20:2 29:4 38:1 39:1 40:1 58:2 59:1 60:1 61:2 62:1 63:2 64:2 65:1 72:1 92:2 253:0
0 1:6 2:6 4:7 5:4 6:2 7:2 9:4 10:4 11:3 23:1 24:1 25:2 28:1 30:2 31:1 37:1 94:2 95:3 96:2 144:2 253:0
0 1:6 2:6 4:10 5:5 6:2 9:3 10:10 11:3 253:0
0 1:12 2:12 4:5 5:1 9:4 10:4 11:2 12:2 13:1 15:1 23:1 24:1 28:1 29:4 32:1 41:1 54:1 88:1 114:4 253:0
0 1:12 2:12 3:2 4:4 6:4 7:2 8:1 10:3 15:1 20:1 22:1 23:1 24:1 25:1 42:2 43:1 44:2 45:1 102:1 253:0
0 1:15 2:17 3:2 4:4 6:4 7:2 8:1 10:1 14:8 15:8 16:4 20:1 25:2 253:0
0 1:6 2:6 4:9 5:4 6:2 9:3 10:5 11:3 12:3 13:1 15:7 16:3 20:4 22:4 23:3 24:2 26:2 27:1 55:1 62:2 93:1 107:2 108:1 253:0
0 1:7 2:6 3:1 4:2 6:2 7:2 8:1 9:4 11:1 17:1 18:1 19:2 21:1 25:1 29:2 35:1 36:1 39:2 40:1 58:1 59:1 60:1 61:2 62:1 63:2 64:2 65:1 92:2 136:1 153:1 253:0
0 1:6 2:6 4:7 5:3 6:2 9:2 10:5 11:1 15:1 20:1 22:1 23:3 24:4 28:1 62:2 93:1 107:2 253:0
0 1:12 2:12 4:5 6:6 10:1 12:2 13:1 14:2 15:4 16:1 20:3 22:2 23:3 24:4 253:0
0 1:12 2:12 4:7 5:7 6:2 9:9 10:2 11:9 15:1 20:1 29:4 34:3 62:2 92:4 93:1 112:3 113:3 253:0
0 1:8 2:7 3:2 4:5 5:3 6:2 7:2 9:5 10:1 11:2 14:2 15:3 16:1 20:3 25:2 29:2 66:1 94:2 95:1 96:1 253:0
0 1:12 2:12 4:2 5:2 6:2 9:3 11:1 26:2 27:1 29:2 35:1 58:1 59:2 60:2 61:4 62:4 63:4 64:4 65:2 92:4 93:1 107:2 253:0
0 1:12 2:12 4:6 5:1 6:4 9:4 10:6 11:3 14:2 15:2 16:1 23:1 28:2 29:2 35:1 38:1 40:1 72:2 253:0
0 1:6 2:6 4:10 5:8 6:2 9:9 10:8 11:9 12:2 13:1 15:1 20:1 22:1 23:2 24:3 29:4 33:2 34:1 41:1 253:0
0 1:13 2:12 3:2 4:4 5:1 6:5 7:4 8:2 9:2 10:1 25:3 26:4 27:2 29:2 37:1 38:1 40:1 66:2 72:2 253:0
0 4:25 10:36 12:3 13:1 15:4 16:2 20:8 23:2 24:4 55:1 253:0
0 4:23 7:4 8:1 9:1 10:36 15:3 16:1 20:5 22:1 23:2 24:3 36:2 37:2 62:2 93:1 94:2 95:1 107:1 110:2 253:0
0 1:6 2:6 4:12 5:2 6:2 9:3 10:9 11:1 12:6 13:2 15:9 16:4 20:12 22:2 23:2 24:2 29:2 41:2 74:1 97:1 115:1 116:1 117:1 253:0
0 1:6 2:6 4:9 5:3 6:2 9:3 10:9 11:3 15:2 16:1 20:4 22:1 23:1 24:1 253:0
0 1:6 2:6 4:5 5:3 6:2 9:3 10:4 11:1 15:2 16:1 20:2 23:1 24:1 28:1 32:1 38:1 39:1 40:1 141:1 253:0
0 1:12 2:12 4:2 6:4 9:2 10:1 14:4 15:2 26:4 27:2 29:4 74:2 97:2 115:2 116:2 117:2 253:0
0 1:6 2:6 4:22 5:4 6:4 9:3 10:33 11:3 14:4 15:6 16:2 20:8 253:0
0 1:6 2:6 4:3 6:2 10:1 14:6 15:5 16:1 20:2 22:1 23:1 24:1 253:0
0 1:6 2:6 4:16 6:4 10:24 14:2 15:4 16:1 20:5 118:1 119:1 253:0
0 1:9 2:10 3:3 4:5 6:2 7:2 8:1 10:2 14:6 15:7 16:3 20:5 22:1 23:1 24:1 253:0
0 1:6 2:6 4:11 5:3 6:4 9:2 10:14 11:1 12:2 13:1 14:4 15:5 16:2 20:4 253:0
0 4:24 10:35 12:5 13:2 15:2 16:1 20:4 22:1 23:3 24:5 27:1 76:1 133:1 253:0
0 4:22 10:33 12:5 13:2 15:3 20:6 23:2 24:4 27:2 34:1 76:5 112:2 253:0
0 4:14 5:4 9:4 10:13 11:2 15:9 16:3 20:16 23:1 24:2 55:2 253:0
0 1:6 2:6 4:3 5:1 6:4 9:2 10:1 11:1 14:6 15:6 16:3 38:2 40:1 55:1 72:1 253:0
0 4:4 5:1 9:3 10:2 11:3 12:2 13:2 15:2 20:3 23:1 24:2 41:2 68:2 167:2 184:2 253:0
0 1:6 2:6 4:7 5:7 9:5 10:5 11:4 15:1 20:1 22:1 23:3 24:3 28:2 62:4 92:2 93:2 100:1 107:5 253:0
0 1:6 2:6 4:4 5:5 6:2 9:6 11:6 14:2 15:2 16:1 22:1 23:2 24:1 28:2 32:1 253:0
0 1:6 2:6 4:3 5:1 9:2 12:3 13:2 15:1 20:1 26:2 27:1 29:2 38:1 40:1 54:1 58:1 59:2 60:2 61:4 62:2 63:4 64:4 65:2 72:1 92:4 253:0
0 1:6 2:6 4:3 6:2 9:1 10:2 15:3 16:1 20:4 22:1 23:1 26:2 27:1 28:1 32:1 253:0
0 1:6 2:6 4:13 5:5 6:4 9:3 10:16 11:3 14:2 15:3 16:1 20:3 118:1 119:1 253:0
0 1:1 3:1 4:10 5:6 6:1 7:2 8:1 9:6 10:6 11:4 12:3 13:1 15:4 16:1 20:4 22:1 23:3 24:3 25:1 28:2 36:1 40:1 41:1 42:1 43:1 44:2 45:1 62:2 72:2 73:1 74:1 75:1 93:1 100:1 107:2 142:1 253:0
0 1:6 2:6 4:6 6:4 10:6 23:2 24:4 62:1 63:2 64:2 65:1 84:1 85:1 86:2 107:3 253:0
0 4:5 10:4 15:7 16:2 20:11 22:1 23:1 24:1 55:1 253:0
0 1:9 2:8 4:9 6:4 10:7 15:1 20:1 22:1 23:1 24:1 42:2 43:1 44:2 102:2 253:0
0 1:1 3:2 4:6 5:2 6:1 7:4 8:2 9:6 10:4 11:6 23:2 24:1 25:3 28:3 29:1 35:1 36:1 37:1 253:0
0 1:6 2:6 4:7 5:4 6:2 9:5 10:5 11:4 29:2 34:3 35:1 98:1 99:2 112:3 113:3 253:0
0 4:21 10:30 12:4 13:1 15:1 20:3 118:1 119:1 253:0
0 1:6 2:6 4:7 5:3 6:2 9:3 10:6 11:3 15:2 16:1 20:4 22:1 23:1 24:1 253:0
0 1:18 2:18 4:3 6:6 10:3 14:4 15:3 20:3 62:1 63:2 64:2 65:1 83:1 84:1 85:1 86:2 92:2 253:0
0 1:12 2:12 4:6 5:3 6:4 9:4 10:8 11:3 23:1 24:1 28:1 253:0
0 1:8 2:7 3:2 4:3 5:2 6:1 7:2 9:7 10:1 11:6 23:2 24:2 25:1 28:2 29:5 36:1 66:1 94:2 95:1 96:1 253:0
0 4:11 5:1 9:1 10:9 15:3 16:1 20:4 253:0
0 1:12 2:12 4:9 5:6 6:4 9:6 10:5 11:6 15:2 16:1 20:3 23:1 24:2 253:0
0 4:22 10:33 12:5 13:2 15:1 20:3 23:2 24:4 27:1 76:2 253:0
0 1:12 2:12 4:13 5:4 6:8 9:3 10:12 11:3 15:2 16:1 20:3 22:1 23:1 24:1 253:0
0 1:7 2:6 3:6 4:4 5:2 6:2 7:4 8:2 9:2 10:1 11:1 23:1 24:1 25:2 28:1 74:2 90:1 91:1 105:4 253:0
0 1:8 2:9 4:6 6:5 10:3 12:2 13:1 15:1 17:3 18:1 19:2 20:1 21:1 22:1 23:2 24:3 253:0
0 1:6 2:6 4:5 5:3 9:3 11:3 14:6 15:8 16:4 20:5 253:0
0 1:7 2:6 3:2 4:9 5:5 6:3 7:4 8:2 9:10 10:7 11:9 23:3 24:3 25:1 28:3 29:1 33:2 34:1 35:1 36:1 37:1 66:2 253:0
0 4:19 10:25 12:9 13:3 15:1 20:3 23:1 24:2 253:0
0 1:19 2:26 3:3 7:2 8:1 9:1 14:8 15:8 16:4 55:2 66:2 253:0
0 1:12 2:12 4:4 5:4 6:8 9:4 10:3 11:2 23:2 24:1 28:3 33:4 34:2 35:1 253:0
0 1:12 2:12 4:4 5:4 9:6 10:2 11:6 29:4 62:2 92:4 93:1 253:0
0 1:6 2:6 4:4 7:2 9:2 10:6 25:1 29:2 36:1 43:1 44:2 45:2 58:1 59:1 60:1 61:2 62:1 63:2 64:2 65:1 92:2 94:2 95:1 102:1 142:1 253:0
0 4:19 10:23 12:9 13:3 15:2 16:1 20:3 22:1 23:2 24:3 253:0
0 1:6 2:6 4:8 5:4 6:4 9:3 10:5 11:3 14:2 15:3 16:1 20:3 253:0
0 1:12 2:12 4:6 5:1 6:8 9:1 10:5 23:1 24:1 28:1 253:0
0 1:6 2:6 4:14 5:1 9:1 10:14 12:4 13:2 14:2 15:4 16:1 20:5 23:2 24:3 28:1 58:1 59:1 60:1 61:2 62:1 63:2 64:2 65:1 253:0
0 1:6 2:6 4:12 5:3 6:2 9:3 10:15 11:3 15:1 20:1 23:1 24:1 26:2 27:1 28:1 253:0
0 1:12 2:12 4:8 5:4 6:6 9:3 10:6 11:1 14:2 15:3 16:1 20:2 22:1 23:2 24:2 28:1 39:1 40:1 72:1 253:0
0 1:6 2:6 4:6 5:3 6:2 9:5 10:3 11:4 14:2 15:4 16:2 20:4 29:2 253:0
0 1:12 2:12 4:6 5:6 6:6 9:8 10:1 11:7 12:3 13:1 23:2 24:2 28:2 29:2 253:0
0 1:6 2:6 4:13 10:11 12:4 13:2 14:2 15:7 16:2 20:9 22:1 23:1 24:1 26:2 27:1 253:0
0 1:19 2:28 4:4 6:2 10:3 15:1 20:1 22:1 23:2 24:3 253:0
0 1:11 2:11 3:5 4:3 6:6 7:6 8:3 9:5 10:1 11:3 29:3 36:3 37:1 253:0
0 1:6 2:6 4:5 5:4 9:8 10:2 11:6 15:2 16:1 20:2 29:2 35:1 38:2 39:3 40:2 72:1 253:0
0 1:4 2:3 3:2 4:7 5:1 6:5 7:2 8:1 9:1 10:6 25:1 98:1 99:1 152:1 253:0
0 1:6 2:6 4:1 5:2 9:5 11:2 23:2 24:2 26:4 27:2 28:2 29:6 74:1 97:1 115:1 116:1 117:1 253:0
0 1:13 2:12 3:1 4:8 5:1 6:6 7:2 8:1 9:1 10:5 14:2 15:3 16:1 17:1 18:1 19:2 20:2 21:2 22:1 23:2 24:2 25:2 28:1 74:1 75:1 97:1 136:1 253:0
0 1:12 2:12 4:10 5:3 6:6 9:3 10:10 11:3 14:4 15:4 16:2 55:1 253:0
0 1:12 2:12 4:7 5:6 6:2 9:6 10:4 11:6 15:2 16:1 20:1 23:1 24:1 28:1 29:2 33:2 34:1 253:0
0 1:6 2:6 4:1 6:2 14:6 15:4 20:1 22:1 23:1 24:1 253:0
0 1:12 2:12 4:3 5:2 6:4 9:3 10:2 11:3 253:0
0 1:8 2:9 4:3 6:3 10:1 15:1 20:1 22:1 23:1 24:1 26:2 27:1 42:3 43:1 44:2 102:1 253:0
0 1:4 2:3 3:2 4:3 5:1 6:2 7:2 8:1 9:1 12:2 13:1 23:1 24:1 28:1 40:1 72:1 88:1 89:1 114:1 253:0
0 4:17 5:4 9:4 10:17 11:6 15:2 16:1 20:2 22:1 23:1 24:1 253:0
0 1:6 2:6 4:9 5:4 6:2 9:3 10:11 11:3 15:2 16:1 20:1 22:1 23:1 24:1 67:2 68:1 253:0
0 1:6 2:6 4:5 6:2 10:3 14:4 15:4 16:1 20:2 22:1 23:2 24:2 253:0
0 1:10 2:9 3:2 4:2 5:2 6:2 7:2 8:1 9:3 11:3 14:4 15:3 16:1 20:1 23:1 24:1 28:1 29:2 30:4 31:2 253:0
0 1:8 2:9 3:3 4:4 5:4 6:3 7:2 8:1 9:5 10:1 11:3 14:2 15:2 16:1 25:1 38:1 39:1 40:1 66:2 72:1 253:0
0 1:12 2:12 4:4 6:8 12:2 13:1 14:2 15:1 33:2 34:1 253:0
0 1:6 2:6 4:4 5:3 6:2 9:2 10:2 11:1 15:1 20:1 22:1 23:2 24:2 28:1 253:0
0 4:11 5:5 9:3 10:10 11:3 12:5 13:2 15:2 16:1 20:4 22:1 23:1 24:1 253:0
0 1:6 2:6 4:9 5:6 6:2 9:6 10:1 11:6 12:3 13:1 14:6 15:6 16:3 20:3 22:1 23:1 24:1 253:0
0 1:1 3:1 4:1 5:1 7:2 8:1 9:3 11:1 23:1 24:1 28:1 29:1 36:1 42:1 43:1 44:2 45:1 74:1 97:1 115:1 116:1 117:1 142:2 253:0
0 1:6 2:6 4:5 5:2 6:4 9:3 10:4 11:3 14:2 15:2 16:1 26:2 27:1 253:0
0 1:11 2:14 4:5 6:2 10:3 14:4 15:4 16:2 20:1 22:1 23:1 24:1 253:0
0 1:6 2:6 4:8 5:2 6:2 9:3 10:8 11:3 15:2 16:1 20:4 22:1 23:1 24:1 253:0
0 1:6 2:6 4:11 5:6 6:2 9:5 10:7 11:4 15:3 16:1 20:2 22:1 23:3 24:3 26:4 27:2 28:2 253:0
0 1:13 2:12 3:2 4:3 6:6 7:4 8:2 25:2 33:4 34:6 37:1 62:2 63:2 64:4 65:1 93:1 107:1 110:2 112:4 113:2 180:2 253:0
0 1:6 2:6 4:11 5:8 6:2 9:5 10:9 11:4 15:1 20:1 22:1 23:3 24:3 28:2 62:1 107:2 253:0
0 1:14 2:15 3:3 4:5 5:5 6:1 7:2 8:1 9:6 10:1 11:4 14:2 15:3 16:1 20:2 23:1 24:1 25:1 28:1 29:2 66:2 253:0
0 1:12 2:12 3:4 4:1 6:2 7:2 9:1 14:2 15:1 29:2 94:2 95:2 96:2 144:1 253:0
0 1:12 2:12 4:4 6:4 10:3 14:10 15:8 16:2 20:4 253:0
0 4:6 10:6 253:0
0 1:6 2:6 4:1 6:2 7:4 8:1 9:1 12:1 13:1 26:4 27:3 37:2 41:1 66:1 76:1 94:2 95:1 96:1 133:1 253:0
0 1:12 2:12 4:8 5:3 6:4 9:2 10:5 11:1 14:4 15:6 16:3 20:2 22:1 23:3 24:3 28:1 55:1 62:2 93:1 107:2 109:1 253:0
0 1:10 2:9 3:2 4:3 6:6 7:2 8:1 9:2 11:1 15:1 20:1 22:1 23:1 24:1 29:3 36:1 253:0
0 1:6 2:6 4:7 5:2 6:2 9:3 10:6 11:1 23:2 24:2 27:1 28:2 29:2 40:1 72:2 76:2 88:1 89:1 114:1 253:0
0 1:6 2:6 4:14 5:9 6:2 9:5 10:13 11:4 15:2 20:2 22:2 23:3 24:3 28:1 253:0
0 1:6 2:4 3:4 4:6 5:3 6:2 7:4 8:1 9:4 10:5 11:1 14:1 15:4 16:2 20:2 23:1 24:1 28:1 29:3 33:1 34:1 36:1 66:1 90:1 91:1 94:2 95:1 96:1 103:1 200:1 253:0
0 4:7 5:1 9:1 10:8 23:1 24:1 28:1 253:0
0 1:9 2:8 3:2 4:1 5:1 7:2 9:3 11:1 14:1 15:2 16:1 23:1 24:1 28:1 29:3 36:1 58:2 59:1 60:1 61:2 62:1 63:2 64:2 65:1 92:2 94:2 95:1 103:1 253:0
0 4:7 5:1 9:2 10:9 11:1 12:1 13:1 23:2 24:3 28:1 41:1 253:0
0 1:3 2:2 4:2 5:2 6:1 9:5 11:2 17:2 18:1 19:2 21:1 23:1 28:2 29:1 35:1 40:1 72:1 74:1 88:1 89:1 97:1 114:2 115:1 116:1 117:1 153:1 253:0
0 1:6 2:6 4:11 6:2 10:13 14:2 15:6 16:3 20:5 62:1 63:2 64:2 65:1 84:1 85:1 86:2 107:1 253:0
0 1:11 2:9 3:5 4:7 5:2 6:6 7:5 8:4 9:2 10:3 11:1 15:5 16:2 20:6 25:2 29:2 37:1 253:0
0 1:6 2:6 4:5 6:2 10:1 12:3 13:1 14:4 15:5 16:1 20:3 22:1 23:1 24:1 27:3 50:1 51:3 52:3 53:3 76:3 82:3 133:1 253:0
0 1:10 2:9 3:2 4:5 6:2 7:2 8:1 10:3 14:2 15:5 16:2 20:6 22:1 23:1 24:1 25:2 26:2 27:1 253:0
0 1:6 2:6 4:9 5:3 6:2 9:2 10:7 11:1 15:4 16:2 20:7 55:1 253:0
0 1:6 2:6 4:15 5:6 6:6 9:5 10:9 11:4 15:1 20:1 22:1 23:3 24:3 28:2 253:0
0 1:12 2:12 4:1 6:2 14:4 15:2 62:2 63:4 64:4 65:2 83:1 84:2 85:2 86:4 92:4 253:0
0 1:6 2:6 4:3 5:2 6:2 7:8 8:2 9:2 10:3 15:1 20:3 33:4 34:2 37:4 50:1 51:3 52:3 53:3 66:2 82:1 94:4 95:2 96:2 253:0
0 1:4 2:2 3:2 4:3 5:2 6:2 7:4 8:2 9:6 11:6 17:2 18:1 19:2 21:1 23:2 24:1 25:3 28:3 29:1 35:1 36:1 37:1 253:0
0 1:10 2:9 3:3 4:3 5:5 7:5 8:3 9:6 11:6 29:2 33:4 34:2 37:2 62:2 93:1 94:2 95:1 107:1 110:2 253:0
0 1:6 2:6 4:10 5:3 6:6 9:2 10:7 11:1 15:1 20:2 253:0
0 1:9 2:8 3:2 4:6 5:2 6:5 7:2 8:1 9:4 10:3 11:3 12:3 13:1 25:1 26:2 27:1 66:2 253:0
0 1:10 2:9 3:2 4:7 6:4 7:2 8:1 10:5 12:3 13:1 15:1 20:1 22:1 23:1 24:1 253:0
0 1:6 2:6 4:10 5:2 6:2 9:3 10:10 11:3 15:2 16:1 20:3 22:1 23:1 24:1 253:0
0 4:4 10:4 15:1 20:3 118:1 119:1 253:0
0 1:4 2:3 3:2 4:1 5:1 6:2 7:2 8:1 9:2 11:1 23:1 24:1 28:1 253:0
0 1:12 2:12 4:2 5:3 6:2 9:4 11:3 29:2 39:1 40:1 72:1 73:1 74:1 253:0
0 1:6 2:6 4:7 5:6 9:10 10:7 11:8 23:2 28:4 29:4 35:2 253:0
0 1:1 3:1 4:4 5:3 7:2 8:1 9:2 10:2 11:1 15:3 16:1 20:3 42:1 43:1 44:2 45:1 103:1 155:1 253:0
0 4:6 5:3 9:4 10:4 11:2 15:6 16:2 20:7 23:1 27:1 28:2 35:1 55:1 76:1 88:1 114:2 116:1 188:1 253:0
0 4:1 13:1 15:2 16:1 20:1 34:3 54:1 112:3 113:3 253:0
0 1:12 2:12 4:5 5:2 6:2 9:5 10:3 11:3 14:4 15:2 16:1 23:2 24:1 26:2 27:2 28:3 29:2 35:1 76:1 88:1 114:2 253:0
0 1:6 2:6 4:10 5:3 6:2 9:3 10:10 11:3 15:2 16:1 20:2 22:1 23:1 24:1 253:0
0 1:6 2:6 4:10 6:4 10:11 15:1 20:1 22:1 23:1 24:1 253:0
0 4:24 10:38 12:3 13:1 15:4 16:1 20:10 54:1 90:1 91:1 253:0
0 1:6 2:6 4:2 9:1 14:2 15:2 20:1 29:2 46:1 47:1 48:1 49:2 50:1 51:2 52:2 53:1 74:1 82:2 97:1 115:1 116:1 117:1 253:0
0 1:6 2:6 4:3 6:2 10:2 14:2 15:1 23:1 24:2 253:0
0 1:12 2:12 4:5 5:2 6:6 9:2 10:5 11:1 26:4 27:2 253:0
0 1:6 2:6 4:5 5:3 6:4 9:3 10:2 11:1 15:1 20:2 29:2 90:1 91:1 253:0
0 4:15 5:4 9:4 10:24 11:2 12:2 13:1 23:4 24:4 28:4 253:0
0 1:8 2:7 3:5 4:1 5:1 6:2 7:8 8:4 9:2 26:2 27:1 29:1 33:2 34:1 36:1 37:3 66:2 253:0
0 4:7 5:1 9:3 10:9 11:1 12:1 13:1 15:2 16:1 20:3 22:1 23:3 24:2 28:3 35:1 253:0
0 1:14 2:15 4:7 5:3 6:5 9:3 10:2 11:3 14:2 15:2 16:1 17:3 18:1 19:2 20:1 21:1 23:1 24:2 253:0
0 1:6 2:6 4:13 5:7 6:4 9:6 10:11 11:6 23:2 24:2 28:2 253:0
0 1:6 2:6 4:8 5:3 6:6 9:3 10:5 11:1 38:1 39:1 40:1 72:1 253:0
0 1:10 2:9 3:2 4:8 5:5 6:4 7:2 8:1 9:5 10:4 11:4 14:2 15:3 16:1 20:3 23:1 24:1 28:1 29:2 253:0
0 4:21 10:18 12:2 13:1 15:7 16:2 20:11 22:1 23:1 24:1 253:0
0 1:12 2:12 4:3 5:2 6:4 9:5 10:1 11:3 23:1 24:1 28:1 29:4 38:1 40:1 72:2 74:1 97:1 115:1 116:1 117:1 253:0
0 1:4 2:3 3:2 4:2 6:2 7:2 8:1 15:1 20:1 62:2 93:1 107:2 253:0
0 1:10 2:9 3:2 4:5 6:4 7:2 8:1 9:1 10:2 12:2 13:1 14:4 15:4 16:1 20:2 22:1 23:2 24:3 25:2 29:2 38:1 40:1 54:1 72:2 253:0
0 1:8 2:6 3:4 4:2 5:1 6:1 7:4 8:2 9:4 10:1 11:2 25:1 29:1 30:2 31:1 35:1 36:1 98:1 99:2 253:0
0 1:3 2:2 4:6 5:3 6:2 9:2 10:5 11:1 42:2 43:1 44:2 59:1 60:1 61:2 62:3 63:4 64:6 65:2 92:2 93:1 107:1 121:2 253:0
0 1:2 2:1 3:2 4:10 5:4 6:3 7:2 9:3 10:9 11:3 25:1 94:2 95:1 253:0
0 1:6 2:6 4:2 6:2 12:2 13:1 14:6 15:4 16:1 20:1 22:1 23:1 24:1 253:0
0 1:12 2:12 4:3 5:4 6:4 9:4 10:3 11:2 23:1 24:1 28:1 35:1 253:0
0 1:9 2:8 3:2 4:5 5:4 6:5 7:2 9:5 11:4 14:2 15:3 16:1 20:2 25:1 29:1 36:1 94:2 95:1 253:0
0 1:10 2:9 3:5 4:1 6:2 7:6 8:3 14:2 15:2 16:1 25:2 37:2 62:2 63:1 64:2 92:2 93:1 253:0
0 1:7 2:6 3:6 7:4 8:2 74:2 105:4 253:0
0 4:1 5:1 9:4 11:2 12:1 13:1 23:1 24:1 28:1 35:1 41:1 68:1 98:1 99:2 167:1 184:1 253:0
0 1:6 2:6 4:3 6:2 10:1 12:3 13:1 14:4 15:5 16:2 20:1 22:1 23:1 24:1 253:0
0 1:12 2:12 4:5 5:2 6:6 9:3 10:1 11:3 12:1 13:1 14:2 15:4 16:2 20:2 23:1 24:2 32:1 41:1 54:1 253:0
0 1:12 2:12 4:1 6:4 9:2 11:1 14:2 15:2 16:1 22:1 23:1 28:1 32:1 253:0
0 1:6 2:6 4:12 5:1 6:4 9:1 10:13 15:1 20:1 22:1 23:2 24:3 253:0
0 1:8 2:7 3:1 4:8 5:4 6:4 7:1 9:2 10:4 11:1 12:2 13:1 14:2 15:3 16:1 17:1 19:1 20:3 21:1 25:1 69:1 70:1 71:1 253:0
0 1:12 2:12 4:3 5:1 6:4 9:1 10:1 15:2 16:1 20:3 26:2 27:1 33:2 34:1 253:0
0 1:6 2:6 4:6 6:2 10:7 15:2 16:1 20:2 22:1 23:2 24:3 253:0
0 1:10 2:9 3:2 4:12 6:4 7:2 8:1 10:14 15:4 16:2 20:6 22:2 23:2 24:2 253:0
0 1:12 2:12 3:4 4:6 5:6 6:4 7:2 9:5 10:3 11:4 14:2 15:2 16:1 23:1 24:1 28:1 94:2 95:2 144:1 253:0
0 4:13 5:3 9:3 10:15 11:3 15:2 16:1 20:3 22:1 23:2 24:2 28:1 253:0
0 1:11 2:14 4:6 5:3 6:2 9:2 10:4 11:1 14:2 15:3 16:1 20:1 22:1 23:3 24:3 28:1 62:2 93:1 107:2 109:1 253:0
0 4:2 5:2 9:6 11:3 23:1 27:1 28:2 35:1 58:2 59:1 60:1 61:2 62:1 63:2 64:2 65:1 76:1 88:1 107:1 114:2 116:1 188:1 253:0
0 1:6 2:6 4:10 5:6 6:2 9:5 10:7 11:4 15:2 16:1 20:2 22:1 23:1 24:1 253:0
0 1:10 2:9 3:2 4:12 5:3 6:6 7:2 8:1 9:3 10:14 11:3 12:2 13:1 14:4 15:6 16:3 20:5 22:1 23:1 24:1 253:0
0 1:6 2:6 4:2 5:1 9:2 11:1 14:2 15:3 16:1 20:2 23:1 24:1 27:3 28:1 29:2 55:1 76:3 104:3 253:0
0 1:6 2:6 4:1 6:2 9:1 14:2 15:1 29:2 67:2 68:1 74:1 90:1 91:1 97:1 115:1 116:1 117:1 253:0
0 4:10 5:2 9:4 10:13 11:2 23:2 24:2 28:2 35:1 98:1 99:2 253:0
0 1:6 2:6 4:6 5:2 6:4 9:2 10:3 11:1 14:2 15:3 16:1 20:4 253:0
0 1:12 2:12 4:8 5:3 6:6 9:3 10:8 11:3 15:2 16:1 20:2 23:2 24:4 253:0
0 1:9 2:8 4:5 5:6 6:3 9:7 10:2 11:6 29:2 33:2 34:1 38:1 40:1 42:2 43:1 44:2 72:2 102:1 253:0
0 1:12 2:12 4:1 6:2 9:4 15:1 20:1 22:1 23:1 24:1 29:8 59:1 60:1 61:2 62:1 63:2 64:2 65:1 92:2 127:2 128:1 253:0
0 1:1 3:2 4:8 5:8 6:1 7:4 8:2 9:16 10:2 11:15 23:3 24:1 25:3 28:5 29:1 35:2 36:1 37:1 66:2 253:0
0 1:6 2:6 4:8 5:5 6:2 7:4 8:1 9:7 10:4 11:6 23:1 24:1 25:2 28:1 29:2 36:2 37:2 66:2 94:2 95:1 253:0
0 1:18 2:18 4:9 5:2 6:6 9:2 10:11 11:1 14:6 15:8 16:4 20:2 22:1 23:1 24:1 253:0
0 1:6 2:6 4:4 5:3 6:2 9:2 10:2 11:1 14:4 15:3 20:2 253:0
0 4:3 5:4 9:3 10:1 11:1 23:1 24:1 28:1 46:1 47:1 48:1 49:2 50:1 51:2 52:2 53:1 123:1 253:0
0 1:12 2:12 4:4 5:5 6:2 9:6 10:1 11:6 14:6 15:5 16:1 20:2 29:2 253:0
0 1:16 2:15 3:2 4:4 5:1 6:4 7:2 8:1 9:2 10:4 11:1 29:2 253:0
0 1:10 2:9 3:2 4:6 5:4 6:2 7:2 8:1 9:8 10:5 11:7 23:2 24:2 28:2 29:5 36:1 253:0
0 1:12 2:12 4:2 5:1 6:4 9:4 11:3 29:2 62:2 90:1 91:1 92:4 93:1 253:0
0 1:18 2:18 4:5 5:7 6:6 9:6 10:1 11:6 14:2 15:1 253:0
0 1:6 2:6 4:3 5:2 6:4 9:4 11:3 15:2 16:1 20:2 39:1 40:2 72:2 73:1 74:1 88:1 89:1 114:1 141:1 253:0
0 1:1 3:2 4:9 5:3 6:1 7:4 8:2 9:4 10:7 11:1 15:1 20:2 23:1 24:1 25:1 28:1 29:1 36:1 37:1 38:1 39:1 40:1 66:2 253:0
0 1:6 2:6 4:2 5:1 6:2 9:4 11:3 15:2 16:1 20:2 22:1 23:1 24:1 26:2 27:1 29:2 253:0
0 4:1 5:1 9:3 11:1 35:1 58:1 59:1 60:1 61:2 62:1 63:2 64:2 65:1 107:1 253:0
0 1:1 3:2 4:2 5:1 6:2 7:4 8:2 9:3 11:1 12:1 13:1 23:1 24:1 25:2 28:1 35:1 37:1 41:2 253:0
0 4:28 10:45 15:4 20:7 22:1 23:1 24:1 253:0
0 1:12 2:12 3:5 4:3 5:2 6:4 7:4 8:2 9:2 10:1 11:1 23:1 24:1 28:1 253:0
0 4:4 5:6 9:5 10:1 11:4 12:1 13:1 15:1 20:1 22:1 23:1 24:1 47:1 48:1 49:2 50:1 51:2 52:2 53:1 201:1 253:0
0 1:12 2:12 4:9 5:3 6:8 7:2 9:5 10:4 11:1 12:3 13:1 23:1 25:2 28:2 35:1 37:1 38:2 39:2 40:2 41:1 72:2 88:1 94:2 95:3 114:3 144:2 253:0
0 1:12 2:12 4:6 6:10 10:4 15:1 20:1 22:1 23:1 24:1 253:0
0 1:6 2:6 4:9 5:4 9:2 10:7 11:1 14:4 15:7 16:3 20:7 253:0
0 1:6 2:6 4:14 5:10 6:2 9:7 10:13 11:6 23:1 24:1 28:1 38:1 39:1 40:1 72:1 253:0
0 1:6 2:6 4:15 6:4 10:22 14:2 15:2 20:2 253:0
0 4:4 10:3 15:1 20:1 22:1 23:2 24:3 253:0
0 1:12 2:12 4:6 5:2 9:2 10:4 11:1 14:8 15:10 16:4 20:10 253:0
0 1:7 2:6 3:2 4:3 5:2 6:3 7:4 8:2 9:3 10:1 11:1 25:1 29:2 37:1 38:1 39:1 40:1 253:0
0 1:12 2:12 4:10 5:1 6:8 9:2 10:13 11:1 15:1 20:2 253:0
0 1:12 2:12 4:8 5:5 6:2 9:6 10:3 11:6 12:4 13:1 14:8 15:8 16:4 20:2 22:1 23:1 24:1 29:2 253:0
0 1:7 2:6 3:2 4:3 5:1 6:2 7:4 8:2 9:1 10:1 12:1 13:1 26:2 27:1 37:1 41:1 62:4 66:2 90:1 91:1 93:2 106:2 107:3 164:1 253:0
0 1:8 2:6 3:9 4:1 6:1 7:7 8:5 15:1 20:1 22:1 23:1 24:1 25:1 37:1 253:0
0 1:1 3:1 4:5 5:3 6:2 7:2 8:1 9:4 10:2 11:3 12:1 13:1 25:1 36:1 42:1 43:1 44:2 45:1 102:1 142:1 253:0
0 1:6 2:6 4:11 5:4 6:2 9:4 10:10 11:6 15:4 16:2 20:5 22:2 23:2 24:2 253:0
0 4:2 5:2 9:8 10:1 11:12 15:1 20:2 253:0
0 1:9 2:8 26:2 27:1 42:2 43:1 44:2 67:3 68:2 120:1 202:1 253:0
0 1:7 2:4 3:6 4:6 5:4 6:5 7:10 8:5 9:4 10:2 11:3 23:1 24:1 25:3 28:1 33:2 34:4 36:2 37:2 66:2 112:3 113:3 253:0
0 1:3 2:2 4:1 5:1 6:1 9:4 11:6 17:2 18:1 19:2 21:1 253:0
0 1:12 2:12 4:4 5:3 6:4 9:4 10:2 11:1 15:1 20:1 22:1 23:2 24:2 28:1 29:4 38:1 40:1 72:2 74:1 97:1 115:1 116:1 117:1 253:0
0 1:6 2:6 4:4 6:4 15:4 16:2 20:4 22:2 23:2 24:2 253:0
0 4:11 10:13 15:4 16:2 20:2 22:2 23:2 24:2 55:1 253:0
0 4:3 5:2 9:2 10:2 11:1 15:1 20:1 22:1 23:1 24:1 62:2 93:1 100:1 107:1 253:0
0 1:12 2:12 4:10 5:8 6:6 9:5 10:6 11:4 15:2 20:2 22:2 23:3 24:3 28:1 253:0
0 1:8 2:7 3:1 4:10 5:1 6:4 7:1 9:1 10:6 14:2 15:4 16:2 17:1 19:1 20:3 21:1 25:1 38:1 40:1 69:1 70:1 71:1 72:1 141:1 253:0
0 1:12 2:12 4:1 5:1 6:2 9:4 11:1 23:1 24:1 28:1 29:6 253:0
0 1:1 3:2 4:4 5:2 6:1 7:4 8:2 9:5 10:3 11:1 15:2 20:2 23:1 24:1 25:1 28:1 29:1 35:1 36:1 37:1 38:1 39:2 40:1 66:2 253:0
0 1:12 2:12 4:3 5:2 6:4 9:2 12:4 13:2 14:4 15:2 41:2 91:2 203:2 253:0
0 1:15 2:14 3:6 4:5 6:7 7:6 8:2 9:1 10:2 23:1 24:2 25:1 29:2 33:4 34:2 37:1 58:1 59:1 60:1 61:2 62:1 63:2 64:2 65:1 94:2 95:1 107:1 253:0
0 1:6 2:6 4:13 5:3 6:4 9:3 10:18 11:3 14:4 15:3 16:1 20:3 23:1 24:2 253:0
0 1:6 2:6 4:4 5:3 6:2 9:2 10:2 11:1 34:3 62:2 92:2 93:1 113:3 180:3 253:0
0 4:1 15:1 20:1 74:1 75:1 116:1 117:1 253:0
0 1:12 2:12 4:4 5:1 6:4 9:1 10:2 14:4 15:4 16:2 20:1 38:1 40:1 72:2 253:0
0 1:10 2:9 3:6 4:1 6:1 7:6 8:3 25:1 37:1 62:2 63:1 64:2 93:1 107:1 110:2 253:0
0 1:12 2:12 4:6 5:7 6:4 9:7 10:3 11:5 14:2 15:2 16:1 23:1 24:1 26:2 27:1 28:1 29:2 253:0
0 1:8 2:7 3:1 4:8 5:4 6:2 7:1 9:6 10:4 11:6 12:3 13:1 14:1 15:6 16:2 17:1 19:1 20:6 22:1 23:2 24:1 28:2 29:2 32:1 33:4 34:2 69:1 70:1 71:1 103:1 253:0
0 4:7 5:2 9:1 10:7 253:0
0 1:2 3:4 7:4 8:2 9:3 11:3 29:1 36:1 253:0
0 1:9 2:8 3:2 4:1 6:4 7:2 8:1 9:1 26:4 27:2 29:2 74:1 97:1 115:1 116:1 117:1 253:0
0 1:2 2:1 3:5 4:4 5:1 7:8 8:4 9:2 10:3 15:3 16:1 20:4 29:1 32:1 34:1 36:1 37:3 66:2 112:2 253:0
0 1:15 2:14 4:4 5:2 6:10 9:2 17:2 18:1 19:2 21:2 39:2 40:2 72:2 253:0
0 1:12 2:12 4:7 5:2 6:4 9:3 10:7 11:1 15:2 16:1 20:2 22:1 23:2 24:2 26:2 27:1 28:1 29:2 32:1 38:1 40:1 72:2 253:0
0 1:8 2:9 3:3 4:4 5:1 6:4 7:2 8:1 9:1 10:2 23:1 24:2 253:0
0 1:6 2:6 4:7 5:6 6:2 9:6 10:6 11:4 14:2 15:2 16:1 23:1 24:1 26:2 27:1 28:1 29:2 253:0
0 1:12 2:12 4:4 5:3 6:2 9:6 10:2 11:6 23:1 24:2 29:4 62:2 92:4 93:1 253:0
0 1:6 2:6 4:9 5:4 6:4 9:3 10:7 11:3 14:2 15:3 16:1 20:5 23:1 24:1 28:1 50:1 51:3 52:3 53:3 82:1 90:1 91:1 253:0
0 1:6 2:6 4:11 5:7 6:2 9:7 10:7 11:6 38:1 39:1 40:1 72:1 253:0
0 4:23 5:3 9:1 10:33 12:5 13:2 15:4 16:1 20:6 23:2 24:4 38:1 40:1 72:1 141:1 253:0
0 4:5 5:2 9:4 10:3 11:3 12:1 13:1 15:6 16:2 20:8 32:2 38:1 39:2 40:2 41:1 72:1 141:1 253:0
0 1:6 2:6 4:14 5:4 6:4 9:3 10:18 11:3 14:2 15:3 16:1 20:2 253:0
0 1:6 2:6 4:6 5:2 9:2 10:3 11:1 14:6 15:6 16:3 20:4 253:0
0 1:6 2:6 4:4 5:2 6:2 9:2 10:2 11:1 14:2 15:1 23:1 24:1 26:2 27:1 28:1 253:0
0 1:12 2:12 4:5 5:5 6:6 9:7 10:1 11:6 29:2 33:2 34:1 38:1 39:1 40:1 72:1 253:0
0 1:12 2:12 4:3 6:4 10:1 12:2 13:1 14:10 15:6 16:1 20:1 23:1 24:2 54:1 253:0
0 1:12 2:12 4:2 5:2 6:4 9:6 11:6 35:1 62:2 93:1 98:1 99:1 100:2 101:1 253:0
0 1:6 2:6 4:14 5:4 6:2 9:3 10:11 11:3 14:2 15:4 16:2 20:4 22:1 23:1 24:1 253:0
0 1:12 2:12 4:3 5:3 6:4 9:6 11:6 15:1 20:1 22:1 23:3 24:2 26:2 27:1 28:3 29:2 30:2 31:1 33:2 34:1 35:1 253:0
0 1:1 3:2 4:3 5:1 6:2 7:4 8:2 9:4 11:2 25:2 35:1 37:1 62:2 93:1 98:1 99:2 107:2 253:0
0 1:12 2:12 4:10 5:1 6:8 9:2 10:13 11:1 15:1 20:2 253:0
0 1:6 2:6 4:3 5:2 6:2 9:2 11:1 15:1 20:1 22:1 23:1 24:1 58:2 59:1 60:1 61:2 62:1 63:2 64:2 65:1 92:2 253:0
0 1:6 2:6 4:2 5:1 6:4 9:3 23:1 24:1 28:1 29:4 74:2 97:2 115:2 116:2 117:2 253:0
0 1:6 2:6 4:9 5:2 6:2 9:2 10:7 11:1 12:7 13:2 23:2 24:2 28:2 253:0
0 1:6 2:6 4:2 5:1 6:2 9:1 10:1 14:6 15:3 253:0
0 1:12 2:12 4:4 5:1 6:4 9:3 10:3 11:3 15:2 16:1 20:4 253:0
0 1:6 2:6 4:7 5:4 6:2 7:4 8:1 9:7 10:4 11:4 14:2 15:2 16:1 20:1 36:4 37:2 66:1 94:2 95:1 96:1 253:0
0 4:7 5:4 9:6 10:3 11:6 12:1 13:1 15:2 16:1 20:2 22:1 23:2 24:2 28:1 41:1 62:2 93:1 100:2 106:1 107:1 253:0
0 1:4 2:2 3:1 4:4 5:2 6:2 7:2 8:1 9:4 11:1 12:3 13:2 17:2 18:1 19:2 21:1 23:1 24:1 25:1 28:1 29:1 36:1 40:1 42:1 43:1 44:2 45:1 72:1 74:1 88:1 89:1 97:1 114:1 115:1 116:1 117:1 142:1 153:1 253:0
0 1:6 2:6 4:5 5:3 6:2 9:3 10:2 11:3 14:2 15:3 16:1 20:2 23:1 24:2 253:0
0 1:12 2:12 4:5 5:1 6:4 9:6 10:6 11:6 23:1 28:1 29:4 62:2 93:1 100:1 107:1 109:1 253:0
0 1:6 2:6 4:5 6:2 10:1 14:2 15:8 16:3 20:8 27:6 55:2 76:6 104:6 253:0
0 1:12 2:12 4:11 5:6 6:6 9:9 10:7 11:7 15:1 20:1 23:2 24:2 28:2 29:2 35:1 38:1 39:2 40:2 72:2 73:1 74:1 75:1 253:0
0 1:12 2:12 3:4 4:9 5:10 6:2 7:4 8:2 9:9 10:3 11:7 23:2 24:3 25:2 28:1 37:1 66:2 253:0
0 4:4 5:2 9:2 10:2 11:1 15:2 20:2 62:2 63:4 64:4 65:2 83:2 84:2 85:2 86:4 253:0
0 4:10 5:4 9:3 10:8 11:3 12:3 13:1 15:2 16:1 20:3 22:1 23:1 24:1 253:0
0 1:2 2:1 3:2 4:1 7:4 8:2 14:2 15:2 16:1 20:1 37:1 62:2 68:1 93:1 110:2 118:1 119:1 204:1 253:0
0 1:6 2:6 4:2 5:1 6:4 9:1 14:2 15:1 23:1 24:1 28:1 253:0
0 1:12 2:12 4:6 6:6 10:5 15:1 20:1 22:1 23:2 24:3 253:0
0 1:11 2:14 4:6 6:2 10:8 15:1 20:1 22:1 23:1 24:1 253:0
0 1:18 2:18 4:1 5:2 6:2 9:4 11:2 14:4 15:3 16:1 29:4 35:1 59:2 60:2 61:4 62:2 63:4 64:4 65:2 92:4 253:0
0 1:6 2:6 4:3 5:2 6:2 9:2 10:2 11:1 14:2 15:2 16:1 23:1 24:2 253:0
0 4:20 10:22 12:5 13:2 15:4 16:1 20:5 22:1 23:1 24:1 253:0
0 1:10 2:9 3:2 4:7 5:1 6:7 7:2 8:1 9:3 10:3 11:3 15:2 16:1 20:3 25:1 253:0
0 1:12 2:12 4:5 5:5 6:2 9:6 10:1 11:6 14:4 15:6 16:2 20:3 29:2 40:1 72:1 73:1 74:1 75:1 253:0
0 1:12 2:12 4:8 5:2 6:4 9:4 10:7 11:2 15:2 16:1 20:3 23:2 24:2 28:2 29:4 88:1 114:4 253:0
0 1:1 3:1 4:7 5:6 6:1 7:2 8:1 9:6 10:3 11:4 12:3 13:1 15:3 16:1 20:2 22:1 23:3 24:3 25:1 28:2 36:1 40:1 41:1 42:1 43:1 44:2 45:1 62:2 72:2 73:1 74:1 93:1 100:1 107:2 142:1 253:0
0 1:12 2:12 4:5 6:6 10:2 14:6 15:5 16:2 20:3 22:1 23:2 24:3 253:0
0 1:10 2:9 3:2 4:5 5:2 6:2 7:2 8:1 9:2 10:3 11:1 14:2 15:4 16:2 20:5 22:1 23:2 24:2 26:2 27:1 28:1 253:0
0 1:12 2:12 3:4 4:4 5:1 6:2 7:4 8:2 9:3 10:3 11:3 29:2 37:1 62:2 63:1 64:2 93:1 107:1 110:2 253:0
0 1:6 2:6 4:5 5:7 9:8 10:1 11:7 23:1 24:1 26:4 27:2 28:1 29:2 253:0
0 1:7 2:6 3:2 4:1 7:2 9:2 14:1 15:2 16:1 20:1 29:3 36:1 58:1 59:1 60:1 61:2 62:1 63:2 64:2 65:1 92:2 103:1 174:2 176:2 189:1 253:0
0 1:16 2:15 3:2 4:6 5:8 6:2 7:2 8:1 9:10 10:1 11:8 12:2 13:1 23:1 24:1 28:1 29:3 36:1 41:1 88:1 114:4 253:0
0 4:21 10:32 12:5 13:2 23:1 24:2 253:0
0 4:3 5:4 9:5 10:1 11:4 35:1 98:1 99:2 253:0
0 1:6 2:6 4:7 6:4 10:5 14:6 15:11 16:3 20:12 22:1 23:1 24:1 253:0
0 1:6 2:6 4:3 5:2 9:3 10:1 11:3 14:2 15:2 16:1 20:1 26:4 27:2 118:1 119:1 253:0
0 1:6 2:6 4:8 5:6 6:4 9:5 10:4 11:4 14:2 15:2 16:1 23:2 24:3 28:1 253:0
0 1:14 2:13 3:2 4:7 5:2 6:6 7:4 8:2 9:4 10:1 11:3 12:2 13:1 15:2 16:1 20:2 22:1 23:3 24:2 25:2 28:1 29:1 36:1 37:1 41:1 62:2 93:1 106:1 107:2 109:1 253:0
0 1:10 2:9 3:2 4:4 5:1 6:6 7:2 8:1 9:1 23:1 24:1 25:2 26:2 27:1 28:1 59:1 60:1 61:2 62:1 63:2 64:2 65:1 87:2 88:1 92:2 114:1 253:0
0 1:6 2:6 4:4 5:2 6:2 9:2 10:3 11:1 14:2 15:3 16:1 20:3 253:0
0 1:8 2:9 4:6 5:3 6:2 9:3 10:1 11:3 12:2 13:1 14:6 15:5 16:2 17:3 18:1 19:2 20:2 23:1 24:2 54:1 253:0
0 1:12 2:12 4:3 5:1 6:6 9:2 10:1 11:1 15:1 20:2 26:2 27:1 253:0
0 1:10 2:9 3:2 4:3 5:1 6:6 7:2 8:1 9:2 11:1 14:1 15:1 23:1 24:1 28:1 29:2 103:1 253:0
0 1:6 2:6 4:9 5:2 6:2 9:3 10:12 11:3 15:2 16:1 20:3 253:0
0 1:10 2:9 3:2 4:5 6:4 7:2 8:1 9:2 10:3 11:1 15:1 20:1 22:1 23:1 24:1 29:3 36:1 253:0
0 1:9 2:8 4:3 6:4 9:2 11:1 15:4 16:2 20:2 22:2 23:2 24:2 26:2 27:1 29:4 42:2 43:1 44:2 55:1 253:0
0 1:4 2:3 3:2 4:7 5:3 6:2 7:2 8:1 9:3 10:4 11:3 15:2 20:3 27:1 40:1 72:1 73:1 74:1 75:1 76:1 205:1 253:0
0 1:6 2:6 4:5 5:5 9:5 10:3 11:3 14:2 15:2 16:1 26:2 27:1 29:2 58:1 59:1 60:1 61:2 62:1 63:2 64:2 65:1 92:2 253:0
0 1:8 2:9 3:3 4:11 5:4 6:4 7:2 8:1 9:4 10:13 11:3 23:1 24:1 28:1 90:1 91:1 253:0
0 1:6 2:6 4:2 5:1 6:2 9:3 11:1 23:1 24:1 28:1 29:2 39:1 40:2 62:1 72:1 84:1 85:1 88:1 89:2 100:1 149:1 253:0
0 1:7 2:8 3:3 4:7 5:9 6:1 7:2 9:8 10:5 11:7 23:1 24:1 25:1 28:1 94:2 95:1 253:0
0 1:6 2:4 4:5 5:3 6:2 9:3 10:2 11:3 12:3 13:1 42:4 43:2 44:4 102:2 253:0
0 1:11 2:14 4:5 6:4 10:4 62:1 63:2 64:2 65:1 84:1 85:1 86:2 92:2 253:0
0 4:6 5:2 9:4 10:8 11:2 12:2 13:2 23:3 24:2 28:4 31:1 35:1 124:1 173:1 253:0
0 4:21 10:32 12:5 13:2 15:2 20:4 23:1 24:2 54:1 253:0
0 4:18 10:18 12:4 13:2 15:5 16:1 20:7 22:1 23:2 24:3 253:0
0 1:6 2:6 4:2 5:1 6:2 9:2 10:1 11:1 14:4 15:2 50:1 51:3 52:3 53:3 82:1 253:0
0 1:12 2:12 4:4 6:4 10:2 14:2 15:3 16:1 20:3 22:1 23:2 24:3 253:0
0 1:6 2:6 4:6 5:1 6:2 9:1 10:4 15:3 16:1 20:2 26:2 27:1 40:1 72:2 73:1 74:1 75:1 253:0
0 1:6 2:6 4:6 5:6 6:4 9:6 10:1 11:4 38:1 39:1 40:1 72:1 253:0
0 1:6 2:6 4:3 5:4 6:4 9:6 11:2 33:2 34:1 35:1 38:1 39:2 40:1 88:1 114:3 253:0
0 1:2 2:1 3:2 4:21 6:3 7:2 10:32 12:3 13:1 15:1 20:3 25:1 94:2 95:1 253:0
0 1:12 2:12 4:6 5:4 6:4 9:4 10:2 11:2 14:2 15:2 16:1 20:1 23:2 24:2 28:2 29:2 34:3 112:3 113:3 253:0
0 1:6 2:6 4:9 5:1 6:2 9:3 10:10 11:3 15:4 16:2 20:4 22:1 23:1 24:1 253:0
0 1:6 2:6 4:14 5:9 6:2 9:5 10:13 11:4 15:2 20:2 22:2 23:3 24:3 28:1 253:0
0 1:6 2:6 4:9 5:9 6:2 9:6 10:6 11:4 14:2 15:2 16:1 23:1 24:1 28:1 58:1 59:1 60:1 61:2 62:1 63:2 64:2 65:1 92:2 118:1 119:1 253:0
0 1:12 2:12 4:3 5:1 9:3 10:2 11:1 15:1 20:1 22:1 23:2 24:2 28:1 29:4 62:2 63:2 64:4 65:1 92:4 93:1 253:0
0 1:12 2:12 4:7 5:6 6:4 9:8 10:3 11:7 14:2 15:2 16:1 20:1 23:1 24:1 28:1 29:2 35:1 253:0
0 1:12 2:12 4:3 5:2 6:4 9:4 11:1 14:2 15:3 20:2 22:2 23:3 24:3 28:1 29:4 127:2 128:1 253:0
0 4:24 10:38 15:2 20:3 23:2 24:4 253:0
0 4:4 5:3 9:9 10:1 11:5 12:3 13:2 15:3 16:1 22:2 23:2 28:2 32:2 35:2 38:2 39:3 40:2 41:2 72:1 74:1 75:1 97:2 253:0
0 1:6 2:6 4:6 5:3 6:2 9:3 10:2 11:3 14:6 15:12 16:6 20:9 55:1 253:0
0 1:6 2:6 4:11 5:5 6:2 9:6 10:8 11:6 15:4 16:2 20:5 22:1 23:1 24:1 253:0
0 1:8 2:9 3:3 4:6 5:4 6:3 7:2 8:1 9:3 10:4 11:1 23:1 24:1 25:1 26:2 27:1 28:1 66:2 253:0
0 1:10 2:9 3:2 4:5 6:4 7:2 8:1 10:4 15:2 16:1 20:3 22:1 23:1 24:1 26:2 27:1 253:0
0 4:17 5:7 9:6 10:21 11:6 253:0
0 1:6 2:6 4:6 5:5 6:2 9:5 10:3 11:4 23:1 24:1 28:1 29:2 253:0
0 1:1 3:1 4:7 5:1 6:2 7:2 8:1 9:2 10:6 11:1 25:2 42:1 43:1 44:2 45:1 102:2 253:0
0 4:6 5:6 9:3 10:6 11:3 118:1 119:1 253:0
0 1:6 2:6 4:12 5:3 6:2 9:3 10:13 11:3 23:1 24:2 33:2 34:1 253:0
0 1:9 2:5 3:9 4:4 5:1 6:1 7:9 8:3 9:6 10:6 11:4 23:1 25:1 26:2 27:1 28:2 29:5 33:1 34:4 35:1 36:1 37:1 94:5 95:3 96:2 112:3 113:3 144:1 200:1 253:0
0 1:12 2:12 4:9 5:3 6:4 9:3 10:4 11:3 12:4 13:1 15:5 16:2 20:5 253:0
0 1:6 2:6 4:20 5:3 6:4 9:3 10:28 11:3 12:2 13:1 14:4 15:7 16:3 20:9 22:1 23:1 24:1 253:0
0 4:4 10:2 15:3 16:1 20:3 22:2 23:2 24:2 253:0
0 4:19 5:1 9:1 10:28 12:7 13:3 23:2 24:4 41:1 253:0
0 1:6 2:3 3:7 4:1 6:2 7:8 8:4 9:3 17:2 18:1 19:2 21:1 25:1 29:2 36:4 37:2 253:0
0 1:12 2:12 4:9 5:8 6:4 9:5 10:7 11:4 14:4 15:4 16:2 23:1 24:1 28:1 253:0
0 1:6 2:6 4:5 5:6 6:4 9:5 10:2 11:4 253:0
0 1:6 2:6 4:6 5:1 6:2 9:1 10:3 14:2 15:6 16:3 20:6 22:1 23:2 24:2 28:1 253:0
0 1:6 2:6 4:20 6:4 10:23 12:5 13:2 15:3 20:5 22:1 23:1 24:1 253:0
0 1:14 2:15 4:4 5:6 6:3 9:6 11:6 17:3 18:1 19:2 21:1 23:1 24:1 28:1 253:0
0 1:6 2:6 4:3 5:1 6:2 9:2 10:1 11:1 15:1 20:1 22:1 23:2 24:2 28:1 29:2 253:0
0 1:15 2:14 4:5 5:5 6:6 9:6 10:2 11:4 23:1 24:1 28:1 29:2 33:2 34:1 38:1 40:1 42:2 43:1 44:2 72:2 253:0
0 1:12 2:12 4:4 5:2 6:6 9:2 10:1 11:1 14:2 15:3 16:1 20:1 22:1 23:2 24:2 26:2 27:1 28:1 253:0
0 1:6 2:6 4:8 6:4 10:6 12:4 13:1 14:2 15:7 16:3 20:6 22:2 23:3 24:4 55:2 253:0
0 1:6 2:6 4:10 5:4 6:4 9:2 10:8 11:1 14:2 15:3 16:1 20:3 23:1 24:2 253:0
0 1:6 2:6 4:11 6:2 10:15 12:5 13:2 14:6 15:4 16:1 23:1 24:2 253:0
0 1:12 2:12 4:8 5:3 6:6 9:3 10:4 11:3 14:2 15:4 16:2 20:2 22:1 23:2 24:3 253:0
0 1:6 2:6 4:3 5:2 6:2 9:3 10:2 11:3 253:0
0 1:12 2:12 4:4 6:6 9:2 10:1 12:2 13:1 14:2 15:2 16:1 20:1 23:1 24:2 29:4 33:6 34:3 54:1 253:0
0 1:12 2:12 4:5 6:4 10:4 14:2 15:4 16:1 20:6 22:1 23:1 24:1 26:2 27:1 253:0
0 1:6 2:6 4:9 5:4 6:2 9:3 10:8 11:3 15:3 16:1 20:5 22:1 23:1 24:1 253:0
0 1:12 2:12 4:6 5:2 6:6 9:2 10:3 14:2 15:1 23:1 24:1 26:4 27:2 28:1 38:1 40:1 72:2 253:0
0 1:6 2:6 4:4 5:2 6:4 9:2 10:1 11:1 15:2 16:1 20:3 23:1 24:1 28:1 34:3 112:3 113:3 253:0
0 1:6 2:6 4:8 5:2 6:2 9:3 10:7 11:1 15:1 20:2 23:1 28:2 35:1 58:1 59:1 60:1 61:2 62:1 63:2 64:2 65:1 92:2 253:0
0 1:9 2:9 3:5 4:5 5:3 6:5 7:6 8:3 9:4 10:1 11:3 23:1 24:1 25:3 28:1 33:2 34:1 37:1 66:2 253:0
0 1:6 2:6 4:7 5:2 6:4 9:2 10:4 11:1 14:2 15:4 16:2 20:4 33:2 34:1 253:0
0 1:8 2:9 4:9 5:4 6:2 9:4 10:6 11:6 12:5 13:2 14:6 15:6 16:3 17:3 18:1 19:2 20:1 23:1 24:2 54:1 253:0
0 1:6 2:6 4:2 5:2 6:2 9:4 11:6 14:2 15:2 16:1 253:0
0 4:9 5:7 9:8 10:5 11:12 15:2 16:1 20:2 22:1 23:1 24:1 253:0
0 4:9 5:3 9:3 10:7 11:3 15:3 16:1 20:3 22:1 23:1 28:1 32:1 253:0
0 1:12 2:12 3:4 4:3 6:4 7:4 8:2 9:2 10:1 11:1 15:6 16:3 20:6 22:1 23:1 28:1 32:1 33:2 34:1 36:2 37:1 55:1 253:0
0 1:1 3:1 7:2 8:1 9:3 11:1 23:1 28:1 29:1 36:1 42:1 43:1 44:2 45:1 74:1 97:1 115:1 116:1 117:1 142:2 253:0
0 1:12 2:12 4:6 5:5 6:2 7:2 9:6 10:1 11:6 14:4 15:5 16:2 18:1 19:2 20:3 21:2 25:2 29:2 94:2 95:1 136:2 253:0
0 1:1 3:2 4:3 5:2 6:1 7:4 8:2 9:7 11:6 23:2 24:1 25:1 28:3 29:1 35:1 36:1 37:1 62:4 66:2 93:2 107:4 164:1 253:0
0 1:8 2:9 3:3 4:11 5:8 6:4 7:2 8:1 9:8 10:8 11:7 23:1 28:2 35:1 253:0
0 1:6 2:6 4:7 5:6 6:2 9:7 10:6 11:5 14:2 15:2 16:1 23:1 24:1 26:2 27:1 28:1 29:2 253:0
0 1:4 2:3 3:2 4:3 5:1 6:3 7:2 8:1 9:1 10:1 23:1 24:1 25:1 28:1 253:0
0 1:6 2:6 4:12 5:6 6:2 9:6 10:9 11:4 12:3 13:2 14:2 15:2 16:1 20:1 23:1 24:1 26:2 27:1 28:1 29:2 253:0
0 1:12 2:12 4:7 5:7 6:6 9:6 10:3 11:4 14:2 15:3 16:1 20:2 23:2 24:2 26:2 27:1 28:2 34:2 39:1 40:1 72:1 111:2 113:1 253:0
0 1:10 2:9 3:2 4:5 5:4 6:2 7:2 8:1 9:6 10:2 11:6 12:2 13:1 15:1 20:1 23:1 24:1 28:1 29:3 36:1 41:1 54:1 253:0
0 1:12 2:12 4:14 5:4 6:6 9:3 10:17 11:3 14:2 15:1 253:0
0 1:6 2:6 4:9 5:2 6:2 9:3 10:9 11:3 15:2 16:1 20:4 22:1 23:1 24:1 253:0
0 1:6 2:6 4:9 5:3 6:4 9:2 10:11 11:1 14:2 15:2 16:1 253:0
0 1:6 2:6 4:8 6:2 10:10 15:2 20:4 22:1 23:1 24:1 253:0
0 1:12 2:12 4:14 5:3 6:8 7:2 9:3 10:13 11:3 15:1 20:1 22:1 23:2 24:2 25:2 28:1 37:1 94:2 95:3 144:2 253:0
0 1:9 2:10 3:3 4:9 5:2 6:2 7:2 8:1 9:2 10:10 11:1 12:1 13:1 14:2 15:2 16:1 23:1 24:2 253:0
0 1:12 2:12 4:4 6:8 10:1 14:4 15:2 62:2 63:4 64:4 65:2 84:2 85:2 86:4 92:4 253:0
0 4:9 5:3 9:4 10:10 11:3 15:1 20:1 22:1 23:3 24:3 28:2 74:1 97:1 253:0
0 1:11 2:14 4:3 5:2 6:2 9:3 11:3 14:2 15:2 16:1 27:2 29:2 76:2 253:0
0 1:6 2:6 4:13 5:6 6:2 9:6 10:11 11:6 15:2 16:1 20:2 22:1 23:1 28:1 32:1 253:0
0 1:1 3:1 4:6 6:2 7:2 8:1 10:3 15:2 20:2 22:2 23:2 24:2 25:1 42:1 43:1 44:2 45:1 62:2 93:1 102:1 107:1 110:1 121:1 253:0
0 1:6 2:6 4:10 5:5 6:2 9:5 10:7 11:4 15:2 16:1 20:2 22:1 23:2 24:2 28:1 32:1 33:2 34:1 253:0
0 1:12 2:12 4:7 5:1 6:8 9:3 10:4 11:3 12:3 13:1 23:1 24:2 253:0
0 1:12 2:12 4:6 6:8 10:5 23:2 24:4 34:3 112:3 113:3 253:0
0 1:10 2:9 3:2 4:5 5:6 6:2 7:2 8:1 9:9 10:1 11:6 12:2 13:1 23:2 24:2 28:2 29:2 35:1 41:2 88:1 114:4 253:0
0 1:10 2:9 3:2 4:3 5:2 6:3 7:2 8:1 9:3 10:1 11:1 15:1 20:1 23:1 24:1 25:1 26:3 27:2 28:1 29:2 32:1 38:1 40:1 72:2 132:1 253:0
0 1:6 2:6 4:12 5:5 6:2 9:4 10:11 11:6 15:3 16:1 20:4 22:1 23:1 24:1 62:1 63:2 64:2 65:1 84:1 85:1 86:2 107:1 253:0
0 1:9 2:10 3:3 4:9 5:2 6:2 7:2 8:1 9:2 10:10 11:1 12:1 13:1 14:2 15:2 16:1 253:0
0 1:6 2:6 4:17 5:6 6:2 9:6 10:18 11:4 14:2 15:2 16:1 20:1 23:1 24:1 26:2 27:1 28:1 29:2 253:0
0 1:6 2:6 4:4 5:3 6:2 9:4 11:3 14:2 15:3 16:1 20:2 22:1 23:1 24:1 29:2 253:0
0 1:12 2:12 4:4 5:5 6:4 9:6 11:6 12:2 13:1 14:6 15:4 16:2 41:1 253:0
0 4:6 10:6 12:2 13:1 15:1 20:1 46:1 47:1 48:1 49:1 50:1 51:1 52:1 151:1 253:0
0 1:6 2:6 4:9 5:6 6:2 9:5 10:8 11:4 14:2 15:2 16:1 23:1 24:1 28:1 59:1 60:1 61:2 62:1 63:2 64:2 65:1 92:2 253:0
0 1:7 2:6 3:2 4:6 5:1 7:4 8:2 9:1 10:8 14:2 15:2 16:1 20:2 23:1 24:2 26:4 27:2 37:1 66:2 253:0
0 1:10 2:9 3:2 4:2 5:3 6:2 7:2 8:1 9:6 11:6 23:1 24:1 28:1 29:2 62:2 92:3 93:1 110:1 253:0
0 1:12 2:12 4:4 5:5 6:2 9:6 10:1 11:6 14:4 15:4 16:2 26:2 27:1 29:2 253:0
0 1:12 2:12 4:12 5:6 6:4 9:6 10:8 11:6 15:4 16:2 20:4 22:2 23:2 24:2 253:0
0 4:6 5:5 9:6 10:2 11:6 12:2 13:1 23:2 24:2 28:2 253:0
0 1:6 2:6 4:2 6:4 14:2 15:2 20:1 22:1 23:1 24:1 34:3 50:1 51:3 52:3 53:3 82:1 112:3 113:3 253:0
0 1:6 2:6 4:10 5:3 6:2 9:2 10:9 11:1 15:1 20:1 22:1 23:1 24:1 33:2 34:1 253:0
0 1:6 2:6 4:4 7:6 8:3 9:2 10:2 25:4 29:2 36:2 37:3 58:1 59:1 60:1 61:2 62:1 63:2 64:2 65:1 92:2 253:0
0 1:4 2:4 3:4 4:8 5:1 7:6 8:3 9:2 10:7 11:1 29:1 36:1 37:2 253:0
0 1:9 2:10 3:3 4:12 5:2 6:3 7:2 8:1 9:2 10:14 11:1 15:1 20:2 25:1 253:0
0 1:6 2:6 4:14 5:4 9:2 10:19 11:1 14:2 15:3 16:1 20:3 253:0
0 1:6 2:6 4:5 5:6 6:2 9:6 11:6 12:2 13:1 14:6 15:7 16:3 20:1 22:1 23:2 24:2 28:1 253:0
0 1:6 2:6 4:4 5:1 6:2 9:1 10:1 14:2 15:3 16:1 20:2 22:1 23:2 24:2 28:1 40:1 72:2 88:1 89:1 114:1 253:0
0 1:6 2:6 4:9 5:5 6:2 9:6 10:6 11:6 15:2 16:1 20:1 22:1 23:1 28:1 32:1 253:0
0 50:3 51:9 52:9 53:9 168:3 253:0
0 1:6 2:6 4:9 6:4 10:8 12:3 13:1 15:1 20:1 22:1 23:1 24:1 253:0
0 1:12 2:12 3:4 7:4 8:2 9:2 11:1 14:2 15:3 16:1 22:1 23:1 28:1 32:1 33:2 34:1 36:2 37:1 62:1 63:2 64:2 65:1 83:1 84:1 85:1 86:2 92:2 253:0
0 1:6 2:6 4:4 5:2 6:2 9:2 10:4 11:1 23:2 24:2 28:2 30:2 31:1 253:0
0 1:6 2:6 4:1 5:2 9:5 11:2 29:2 30:2 31:1 33:2 34:1 35:1 38:1 39:2 40:1 253:0
0 1:6 2:6 4:7 5:2 6:2 9:2 10:7 11:1 14:2 15:3 16:1 20:3 22:1 23:1 24:1 253:0
0 1:6 2:6 4:5 5:2 6:2 9:2 10:4 11:1 23:2 24:2 28:2 62:2 93:1 107:4 253:0
0 1:6 2:6 4:8 5:3 6:4 9:2 10:4 11:1 12:2 13:1 14:2 15:3 16:1 20:3 253:0
0 1:12 2:12 4:5 6:4 10:3 14:4 15:6 16:3 20:4 22:1 23:1 24:1 26:4 27:2 55:1 253:0
0 1:6 2:6 4:4 5:2 9:2 10:1 11:1 14:4 15:8 16:4 20:6 253:0
0 1:12 2:12 4:4 5:4 6:2 9:5 11:4 14:2 15:2 16:1 20:1 23:1 24:1 28:1 29:2 253:0
0 1:12 2:12 4:3 5:1 6:2 9:2 10:2 11:1 14:4 15:4 16:2 20:2 253:0
0 1:6 2:6 4:3 5:3 6:2 9:4 11:1 15:2 16:1 20:2 23:1 24:1 28:1 29:2 88:2 114:4 127:1 128:1 154:1 206:1 253:0
0 1:6 2:6 4:2 5:3 9:6 11:6 23:1 26:2 27:1 28:2 29:2 35:1 39:1 40:1 72:1 90:1 91:1 253:0
0 1:6 2:6 4:3 5:2 6:2 9:4 10:1 11:3 14:2 15:2 16:1 20:2 23:1 28:2 34:3 35:1 112:3 113:3 253:0
0 4:4 5:6 9:11 11:15 253:0
0 1:6 2:6 4:20 5:3 6:2 9:2 10:25 11:1 14:2 15:5 16:2 20:5 22:1 23:1 24:1 253:0
0 4:5 5:1 9:3 10:2 11:3 12:2 13:2 15:2 16:1 20:2 22:1 23:2 24:3 41:2 68:2 167:2 184:2 253:0
0 1:6 2:6 4:2 6:4 14:2 15:1 26:4 27:2 253:0
0 1:6 2:6 4:12 5:5 9:5 10:13 11:4 14:4 15:4 16:2 20:3 23:2 24:2 28:2 253:0
0 4:3 5:3 9:2 10:1 11:1 15:2 20:2 22:2 23:2 24:2 62:2 93:1 100:1 107:2 253:0
0 1:6 2:6 4:15 5:7 6:2 9:6 10:19 11:6 12:3 13:1 14:4 15:6 16:3 20:3 23:1 24:1 28:1 29:2 253:0
0 4:25 10:38 12:3 13:1 15:4 16:1 20:5 22:2 23:3 24:4 253:0
0 1:8 2:7 3:2 4:2 5:1 6:2 7:4 8:2 9:2 10:1 11:1 15:1 20:2 36:2 37:1 253:0
0 1:6 2:6 4:8 5:5 6:2 9:2 10:7 11:1 15:2 16:1 20:3 22:1 23:1 24:1 253:0
0 4:6 5:6 7:2 9:6 10:2 11:4 12:3 13:1 15:1 20:1 22:1 23:3 24:3 28:2 34:3 37:1 41:1 62:6 66:1 93:3 94:2 95:3 96:1 100:1 107:4 110:2 113:3 144:2 180:3 253:0
0 4:4 5:2 9:8 10:3 11:12 253:0
0 1:6 2:6 4:8 5:6 6:2 9:4 10:8 11:2 23:2 24:2 28:2 253:0
0 1:6 2:6 4:2 5:3 9:3 11:1 14:2 15:2 16:1 20:1 26:4 27:2 38:1 39:1 40:1 72:1 253:0
0 1:6 2:6 4:5 5:3 6:2 9:3 10:1 11:3 12:3 13:1 14:4 15:5 16:2 20:3 22:1 23:1 24:1 253:0
0 1:12 2:12 4:9 5:7 6:2 9:8 10:5 11:7 15:2 16:1 20:4 29:2 253:0
0 1:9 2:9 3:5 4:4 5:2 6:3 7:6 8:3 9:2 10:1 15:1 20:1 22:1 23:1 24:1 25:1 37:1 66:4 253:0
0 4:12 5:4 9:3 10:13 11:3 12:3 13:1 15:4 16:1 20:5 22:1 23:2 24:2 28:1 41:1 253:0
0 1:12 2:12 4:7 5:4 6:2 9:6 10:6 11:6 14:6 15:9 16:4 20:5 22:1 23:1 28:1 29:2 32:1 55:1 253:0
0 1:12 2:12 4:4 5:1 6:8 9:2 11:1 15:1 20:1 22:1 23:2 24:2 28:1 29:2 253:0
0 1:6 2:6 4:14 5:3 6:4 9:4 10:16 11:3 12:6 13:2 14:2 15:4 20:5 23:3 24:5 28:1 54:2 253:0
0 1:6 2:6 4:9 5:6 6:2 9:7 10:7 11:6 12:2 13:1 15:1 20:1 22:1 23:2 24:3 26:2 27:1 29:4 33:2 34:1 41:1 253:0
0 1:8 2:9 4:3 6:2 10:1 12:2 13:1 14:6 15:6 16:3 17:3 18:1 19:2 20:1 23:1 24:2 54:1 62:2 93:1 107:1 253:0
0 1:12 2:12 4:10 5:6 6:4 9:4 10:5 11:3 14:6 15:6 16:3 20:2 23:1 24:1 28:1 39:1 40:1 72:1 253:0
0 1:6 2:6 14:2 15:1 26:2 27:1 253:0
0 1:6 2:6 4:5 5:7 9:11 10:1 11:10 23:1 24:1 28:1 29:4 253:0
0 1:6 2:6 4:1 6:2 14:2 15:1 253:0
0 1:6 2:6 4:6 5:4 6:4 9:3 10:4 11:1 15:1 20:2 26:2 27:1 29:2 34:3 112:3 113:3 253:0
0 1:1 3:2 4:2 5:2 7:4 8:2 9:3 25:2 29:1 36:1 37:1 58:1 59:2 61:4 63:2 65:1 66:2 74:1 97:1 115:1 116:1 117:1 171:1 253:0
0 1:6 2:6 4:7 5:4 6:2 9:5 10:3 11:4 15:2 16:1 20:2 22:1 23:2 24:2 28:1 29:2 253:0
0 1:6 2:6 4:4 6:4 10:3 14:2 15:1 253:0
0 4:25 10:36 12:3 13:1 15:11 16:3 20:20 22:2 23:2 24:2 55:1 253:0
0 1:12 2:12 4:6 5:8 6:4 9:12 10:1 11:9 12:1 13:1 23:1 24:1 26:2 27:1 28:1 29:4 38:2 39:1 40:2 41:2 72:3 74:1 97:1 115:1 116:1 117:1 253:0
0 1:7 2:6 3:1 4:2 6:3 7:2 8:1 9:2 11:1 15:2 16:1 20:1 22:1 23:1 25:1 27:3 28:1 32:1 36:1 42:1 43:1 44:2 45:1 76:3 104:3 142:1 253:0
0 1:10 2:9 3:2 4:3 6:6 7:2 8:1 9:2 11:1 15:1 20:1 22:1 23:1 24:1 29:3 36:1 253:0
0 1:12 2:12 4:5 5:3 6:4 9:4 10:2 11:3 15:2 20:3 23:1 24:1 26:2 27:1 28:1 29:2 33:2 34:1 38:1 40:1 72:2 253:0
0 4:23 10:35 12:3 13:1 15:1 20:3 23:2 24:4 27:1 76:2 253:0
0 1:8 2:9 4:8 5:4 6:2 9:2 10:5 11:1 12:2 13:1 14:6 15:6 16:2 17:3 18:1 19:2 20:4 23:1 24:2 54:1 253:0
0 1:6 2:6 4:2 5:2 6:2 9:4 10:1 11:3 15:1 20:2 26:2 27:1 32:1 38:1 39:1 40:1 59:1 60:1 61:2 62:3 63:2 64:2 65:1 92:2 93:1 100:1 107:1 149:1 253:0
0 1:6 2:6 4:4 5:2 6:4 9:4 10:2 11:3 29:2 253:0
0 1:12 2:12 4:5 5:4 6:4 9:2 10:3 11:1 90:1 91:1 253:0
0 1:12 2:12 4:7 5:3 6:6 9:2 10:4 11:1 14:2 15:2 20:2 253:0
0 1:12 2:12 4:3 5:1 6:4 9:2 10:1 11:1 15:1 20:1 22:1 23:1 24:1 29:2 253:0
0 1:12 2:12 4:3 5:2 6:4 9:5 10:1 11:3 15:2 16:1 23:1 24:1 28:1 29:4 32:1 38:1 40:1 72:2 74:1 97:1 115:1 116:1 117:1 253:0
0 4:25 10:34 12:5 13:2 15:7 16:3 20:13 22:1 23:3 24:5 34:1 55:1 112:2 253:0
0 1:6 2:6 4:11 5:6 6:2 9:6 10:11 11:4 14:2 15:2 16:1 20:1 23:1 24:1 26:2 27:1 28:1 29:2 253:0
0 1:6 2:6 4:4 5:5 7:2 9:6 10:1 11:6 25:2 29:2 37:1 94:2 95:3 144:2 253:0
0 27:3 34:1 104:3 181:3 253:0
0 4:26 10:44 12:5 13:2 23:2 24:4 27:1 76:1 133:1 253:0
0 4:1 15:1 20:1 31:3 124:3 207:3 253:0
0 1:12 2:12 4:6 6:6 10:5 15:1 20:1 22:1 23:2 24:3 62:2 92:4 93:1 253:0
0 1:6 2:6 4:5 5:1 6:2 9:2 10:4 11:1 14:4 15:6 16:3 20:4 22:1 23:1 28:1 32:1 253:0
0 1:12 2:12 4:4 5:1 6:2 9:2 10:2 11:1 12:3 13:1 15:1 20:1 23:1 24:1 26:6 27:3 28:1 29:2 54:1 62:2 63:2 64:4 65:1 92:2 93:1 107:1 253:0
0 1:8 2:6 3:4 4:4 5:5 6:4 7:4 8:2 9:4 10:1 11:2 23:2 24:2 28:2 253:0
0 1:6 2:6 4:7 5:3 6:4 9:3 10:4 11:1 12:3 13:1 38:1 39:1 40:1 72:1 253:0
0 1:14 2:15 3:3 4:9 6:5 7:2 8:1 10:9 15:3 16:1 20:5 22:1 23:1 24:1 25:1 253:0
0 1:9 2:8 4:11 5:4 6:7 7:4 8:1 9:5 10:6 11:3 15:2 16:1 20:2 23:1 24:1 25:4 26:2 27:1 28:1 29:1 37:2 38:1 40:1 42:2 43:1 44:2 66:2 72:2 94:2 95:1 102:1 142:1 253:0
0 1:10 2:9 3:2 4:2 5:1 6:4 7:2 8:1 9:1 14:4 15:4 16:2 23:1 24:1 28:1 40:1 72:1 88:1 89:1 114:1 253:0
0 4:3 10:2 15:2 20:3 22:1 23:1 24:1 62:2 93:1 107:1 253:0
0 1:14 2:15 3:3 4:9 5:3 6:6 7:2 8:1 9:3 10:5 11:3 12:3 13:1 15:1 20:1 22:1 23:1 24:1 253:0
0 1:6 2:6 4:9 5:2 6:2 9:3 10:8 11:1 23:1 28:2 35:1 58:1 59:1 60:1 61:2 62:1 63:2 64:2 65:1 92:2 253:0
0 1:12 2:12 4:3 5:2 6:4 9:4 10:1 11:3 15:1 20:1 23:1 24:1 26:2 27:1 28:1 29:2 32:1 33:2 34:1 38:1 40:1 72:2 253:0
0 1:6 2:6 4:1 6:2 9:1 14:2 15:3 29:2 51:3 53:3 74:1 82:3 97:1 115:1 116:1 117:1 129:3 130:1 253:0
0 4:9 5:12 9:12 10:1 11:12 15:4 20:5 22:3 23:3 24:3 253:0
0 1:6 2:6 4:5 5:3 9:5 10:3 11:4 15:2 16:1 20:2 22:1 23:2 24:1 28:2 29:4 32:1 33:2 34:1 253:0
0 1:6 2:6 4:2 7:2 9:2 10:1 25:1 29:2 36:1 43:1 44:2 45:2 58:1 59:1 60:1 61:2 62:1 63:2 64:2 65:1 92:2 94:2 95:1 102:1 142:1 253:0
0 1:13 2:14 3:3 4:4 5:1 6:7 7:2 9:1 15:1 20:1 22:1 23:1 24:1 25:1 66:1 94:2 95:1 96:1 253:0
0 1:6 2:6 4:3 5:1 6:2 9:1 10:1 12:2 13:1 14:4 15:4 16:2 23:1 24:1 28:1 34:2 40:1 72:2 88:1 89:1 111:2 113:1 114:1 253:0
0 1:6 2:6 4:10 5:3 6:6 9:3 10:10 11:3 12:4 13:2 14:4 15:3 16:1 23:1 24:2 253:0
0 1:13 2:12 3:6 7:4 8:2 9:2 29:3 36:1 58:1 59:1 60:1 61:2 62:1 63:2 64:2 65:1 92:2 253:0
0 1:5 2:3 3:4 4:3 5:1 6:2 7:6 8:3 9:2 10:1 25:2 29:1 36:1 37:1 66:2 74:1 97:1 115:1 116:1 117:1 253:0
0 1:7 2:6 3:6 4:3 5:2 6:2 7:4 8:2 9:2 11:1 15:1 20:1 23:1 24:1 25:2 28:1 74:2 105:4 253:0
0 1:12 2:12 4:9 5:9 6:6 9:8 10:5 11:5 15:2 16:1 20:2 22:1 23:4 24:3 28:4 35:1 39:1 40:1 72:1 253:0
0 4:14 5:3 9:3 10:15 11:3 12:3 13:1 15:2 16:1 20:2 23:1 24:2 253:0
0 1:16 2:15 3:2 4:7 5:8 6:6 7:2 8:1 9:9 10:1 11:7 25:2 29:4 74:1 97:1 115:1 116:1 117:1 253:0
0 1:12 2:10 4:6 5:3 6:6 9:2 10:3 11:1 12:3 13:1 15:1 20:2 42:4 43:2 44:4 253:0
0 4:4 10:6 15:2 20:2 27:2 76:2 253:0
0 1:12 2:12 4:9 5:7 6:8 9:6 10:8 11:6 253:0
0 1:6 2:6 4:3 5:1 9:2 10:2 11:1 14:2 15:4 16:2 20:3 32:1 98:1 99:1 187:1 253:0
0 1:9 2:10 3:3 4:10 5:7 7:2 8:1 9:8 10:6 11:7 14:2 15:3 16:1 20:2 29:2 253:0
0 1:8 2:9 3:3 4:9 5:6 6:4 7:2 8:1 9:6 10:7 11:4 12:3 13:1 15:1 20:1 23:1 24:1 28:1 66:2 253:0
0 1:12 2:12 4:5 5:2 6:6 7:4 8:1 9:1 10:3 15:1 20:2 33:2 34:1 37:2 66:1 90:1 91:1 94:2 95:1 96:1 253:0
0 1:12 2:12 4:3 6:4 9:9 10:2 11:7 23:1 28:2 29:4 35:1 38:1 40:2 72:4 88:1 89:1 114:2 253:0
0 1:6 2:6 4:9 5:2 6:4 9:4 10:7 11:1 23:1 28:2 35:1 58:1 59:1 60:1 61:2 62:1 63:2 64:2 65:1 88:1 92:2 114:3 253:0
0 4:21 10:30 12:7 13:2 15:1 20:2 23:1 24:2 253:0
0 1:8 2:9 3:3 4:14 5:6 6:3 7:2 8:1 9:4 10:14 11:3 15:3 16:1 20:4 22:1 23:1 24:1 25:1 66:2 253:0
0 1:12 2:12 4:7 6:4 10:8 15:2 16:1 20:3 22:1 23:1 24:1 26:2 27:1 253:0
0 1:6 2:6 4:7 5:8 6:2 9:11 10:1 11:10 15:6 16:3 20:4 22:3 23:3 24:1 28:2 29:2 32:2 39:1 40:1 72:1 253:0
0 1:9 2:8 4:6 5:7 6:2 9:9 10:1 11:9 15:1 20:1 29:4 34:3 42:2 43:1 44:2 62:2 92:3 93:1 112:3 113:3 121:1 253:0
0 4:23 10:35 12:3 13:1 15:2 20:3 23:3 24:5 253:0
0 1:12 2:12 4:9 5:2 6:6 9:2 10:10 14:10 15:12 16:5 20:3 23:1 24:1 28:1 55:1 88:1 114:2 253:0
0 1:9 2:7 3:7 4:10 5:3 6:5 7:8 8:4 9:4 10:8 11:1 15:2 20:2 22:2 23:3 24:3 25:1 28:1 29:1 36:3 37:2 253:0
0 4:6 5:3 9:4 10:4 11:3 12:2 13:1 15:4 16:1 20:4 22:2 23:3 24:2 28:2 32:1 41:1 62:2 93:1 100:1 106:1 107:2 253:0
0 4:3 5:2 9:1 10:1 15:3 16:1 20:3 22:2 23:2 24:2 40:1 72:1 128:1 208:1 253:0
0 1:8 2:7 3:2 7:4 8:2 9:2 14:2 15:4 16:2 29:2 36:2 37:1 58:1 59:1 60:1 61:2 62:1 63:2 64:2 65:1 92:2 103:2 253:0
0 1:9 2:7 3:4 4:4 6:4 7:7 8:5 10:2 14:2 15:1 23:1 24:2 25:2 30:4 31:2 33:2 34:1 37:3 253:0
0 1:8 2:9 3:3 4:9 5:3 6:4 7:2 8:1 9:3 10:10 11:3 90:1 91:1 253:0
0 1:6 2:6 4:10 6:2 10:11 15:3 16:1 20:5 22:1 23:1 24:1 62:3 93:3 107:1 253:0
0 1:9 2:8 4:4 6:4 10:2 15:2 17:2 18:1 19:2 20:3 21:2 22:1 23:1 24:1 26:2 27:1 253:0
0 1:12 2:12 4:4 5:3 6:4 9:5 10:1 11:3 15:2 16:1 20:1 23:1 24:1 26:4 27:2 28:1 29:2 32:1 38:2 39:1 40:2 72:2 141:1 253:0
0 1:6 2:6 4:11 5:5 6:2 9:5 10:10 11:4 23:1 24:1 26:2 27:1 28:1 29:2 253:0
0 4:28 10:39 12:5 13:2 15:3 16:1 20:4 22:1 23:3 24:5 34:1 112:2 253:0
0 1:7 2:6 3:2 4:7 5:8 6:1 7:4 8:2 9:13 10:2 11:12 15:1 20:2 23:2 24:1 25:1 28:3 29:1 35:1 36:1 37:1 62:2 66:2 92:2 93:1 107:1 253:0
0 1:12 2:12 4:4 5:2 6:4 9:3 10:1 12:1 13:1 15:1 20:1 26:4 27:2 29:2 38:2 39:1 40:2 72:3 74:1 75:1 97:1 253:0
0 1:6 2:6 4:2 5:3 6:2 9:4 10:1 11:3 13:1 38:1 39:1 40:1 41:1 62:2 93:1 100:1 106:1 149:1 253:0
0 1:9 2:10 3:5 4:1 7:4 8:2 15:2 16:1 17:2 18:1 19:2 20:1 21:1 22:1 23:1 24:1 25:1 26:2 27:1 136:1 253:0
0 1:6 2:6 4:4 5:2 6:2 9:1 10:3 12:1 13:1 253:0
0 1:6 2:6 4:3 5:2 6:2 9:2 10:1 11:1 14:2 15:2 16:1 20:1 23:1 24:1 27:1 28:1 32:1 76:1 253:0
0 1:12 2:12 4:4 5:1 6:4 9:3 10:2 11:3 12:3 13:1 62:2 92:4 93:1 253:0
0 1:8 2:9 4:9 6:5 10:4 12:3 13:1 15:5 16:2 17:3 18:1 19:2 20:6 21:1 22:3 23:3 24:3 253:0
0 1:6 2:6 4:5 5:4 6:2 9:5 10:1 11:4 12:2 13:1 15:2 16:1 20:1 22:1 23:1 28:1 32:1 33:2 34:1 41:1 54:1 253:0
0 1:15 2:16 3:3 4:6 5:1 6:5 7:2 8:1 9:2 10:4 11:1 15:1 20:2 25:1 29:2 253:0
0 1:6 2:3 3:7 4:4 6:3 7:9 8:5 14:1 15:4 16:2 20:3 25:3 33:2 34:6 37:2 94:2 95:1 103:1 111:2 112:5 113:4 253:0
0 1:6 2:6 4:6 6:4 10:3 14:2 15:3 16:1 20:2 22:1 23:1 24:1 253:0
0 1:6 2:6 3:4 4:2 5:2 6:2 7:4 8:2 9:5 11:2 29:2 35:1 37:1 38:1 39:2 40:1 253:0
0 1:12 2:12 4:3 5:1 6:4 9:3 10:1 11:1 26:2 27:1 29:2 38:1 39:1 40:1 62:2 93:1 100:1 107:2 149:1 253:0
0 1:12 2:12 4:4 5:1 6:4 7:4 8:1 9:1 10:4 15:2 16:1 20:5 26:6 27:3 37:2 66:1 94:2 95:1 96:1 253:0
0 1:8 2:9 3:3 4:9 5:7 6:4 7:2 8:1 9:6 10:7 11:4 58:3 59:2 61:4 63:2 65:1 171:1 253:0
0 1:6 2:6 4:8 5:4 6:4 9:5 10:4 11:4 12:2 13:1 15:1 20:1 23:2 24:2 28:2 253:0
0 1:12 2:12 4:9 5:6 6:4 9:8 10:6 11:7 14:2 15:2 16:1 20:2 23:1 28:2 33:4 34:2 35:1 253:0
0 1:12 2:12 4:3 5:2 6:4 9:5 10:1 11:2 14:4 15:4 16:2 23:1 24:1 26:2 27:1 28:1 35:1 58:1 59:1 60:1 61:2 62:1 63:2 64:2 65:1 92:2 98:1 99:2 253:0
0 1:12 2:12 4:7 6:4 10:5 12:6 13:2 14:4 15:8 16:3 20:5 22:2 23:2 24:2 54:2 253:0
0 1:6 2:6 4:2 5:2 9:6 11:4 15:2 16:1 20:1 23:1 24:1 28:1 29:4 38:1 39:1 40:1 72:1 253:0
0 1:11 2:14 4:7 6:2 10:8 14:2 15:1 23:1 24:2 253:0
0 1:12 2:12 4:8 5:6 6:4 9:7 10:5 11:4 23:3 24:4 26:2 27:1 28:2 29:2 253:0
0 1:12 2:12 4:8 5:1 6:6 9:3 10:10 11:3 23:1 24:2 253:0
0 1:12 2:12 3:4 4:2 5:3 7:4 8:2 9:6 11:6 25:2 26:2 27:1 29:2 37:1 253:0
0 1:6 2:6 4:8 5:6 6:4 9:5 10:5 11:4 14:2 15:3 16:1 20:3 23:1 28:1 253:0
0 1:6 2:6 4:15 5:8 6:2 9:6 10:13 11:6 23:2 24:4 33:2 34:1 253:0
0 1:6 2:6 4:3 5:5 6:2 9:9 11:7 23:1 24:1 28:1 29:2 58:2 59:1 60:1 61:2 62:1 63:2 64:2 65:1 92:2 253:0
0 1:6 2:6 4:7 5:5 6:2 9:5 10:2 11:4 14:2 15:2 16:1 20:1 22:1 23:2 24:2 28:1 253:0
0 1:12 2:12 4:5 6:8 10:1 12:3 13:1 14:2 15:3 16:1 20:2 22:1 23:1 24:1 54:1 253:0
0 4:21 10:30 12:5 13:2 15:1 20:3 23:1 24:2 253:0
0 1:12 2:12 4:3 5:1 6:4 9:3 10:1 11:3 14:2 15:4 16:2 20:3 253:0
0 1:6 2:6 4:5 5:1 6:4 7:4 8:1 9:4 11:3 15:2 16:1 20:2 22:1 23:2 24:1 25:4 28:2 29:2 35:1 37:2 66:1 94:2 95:1 96:1 253:0
0 4:18 10:20 12:4 13:2 15:5 16:1 20:7 22:1 23:2 24:3 253:0
0 1:6 2:6 4:5 5:1 6:2 9:1 10:3 14:2 15:2 16:1 20:1 23:1 24:1 28:1 253:0
0 4:11 5:6 9:5 10:10 11:4 12:2 13:1 15:2 20:3 22:1 23:3 24:3 28:2 41:1 62:2 93:1 106:1 107:3 253:0
0 4:3 5:3 9:3 11:3 27:3 76:3 253:0
0 1:4 2:3 3:2 4:1 6:2 7:2 8:1 15:1 20:1 74:1 105:2 253:0
0 4:18 10:15 12:2 13:1 15:4 16:1 20:5 22:1 23:1 24:1 253:0
0 4:5 5:4 9:5 11:4 12:2 13:1 15:4 16:2 20:4 23:1 24:1 28:1 40:1 41:1 54:1 72:1 88:1 89:1 114:2 253:0
0 1:6 2:6 4:3 6:2 10:1 12:2 13:1 14:2 15:3 16:1 20:2 22:1 23:2 24:3 54:1 253:0
0 1:1 3:2 4:3 5:2 7:4 8:2 9:4 10:1 11:1 15:2 16:1 25:2 29:1 32:1 36:1 37:1 66:2 74:1 97:1 98:1 99:1 115:1 116:1 117:1 187:1 253:0
0 4:20 10:29 12:7 13:3 15:1 20:3 23:1 24:2 118:1 119:1 253:0
0 1:6 2:6 4:6 5:2 6:2 9:2 10:10 11:1 23:2 24:2 26:2 27:1 28:2 253:0
0 4:7 5:2 9:2 10:8 11:1 15:3 20:4 22:1 23:2 24:2 28:1 253:0
0 1:10 2:10 3:3 4:3 5:2 6:1 7:4 8:2 9:4 11:3 15:2 17:2 18:1 19:2 20:2 21:1 25:2 29:2 36:1 37:1 74:1 97:1 115:1 116:1 117:1 153:1 253:0
0 1:12 2:12 4:8 5:3 6:6 9:4 10:5 11:6 15:2 16:1 20:3 253:0
0 1:6 2:6 4:3 5:1 6:2 9:2 10:3 11:1 253:0
0 1:3 2:2 4:2 5:3 6:1 9:4 10:1 11:3 13:1 38:1 39:1 40:1 41:1 42:2 43:1 44:2 62:2 93:1 100:1 102:1 106:1 149:1 253:0
0 4:1 15:2 16:1 20:1 31:1 34:3 111:2 112:3 113:1 124:1 209:1 253:0
0 1:8 2:9 3:3 4:12 5:4 6:3 7:2 8:1 9:4 10:13 11:3 25:1 66:2 253:0
0 1:12 2:12 4:8 5:3 6:6 9:2 10:6 11:1 14:2 15:3 16:1 20:5 23:2 24:3 28:1 33:4 34:2 253:0
0 1:12 2:12 4:14 5:4 6:10 9:3 10:14 11:3 15:1 20:3 253:0
0 1:6 2:6 4:3 5:2 6:2 9:6 11:6 15:2 16:1 20:1 22:1 23:1 28:1 29:2 32:1 34:3 112:3 113:3 253:0
0 1:12 2:12 4:3 5:4 9:6 11:6 29:4 62:2 92:4 93:1 253:0
0 1:1 3:2 4:6 5:2 6:1 7:4 8:2 9:7 10:4 11:6 23:3 24:3 25:1 28:3 29:1 35:1 36:1 37:1 66:2 253:0
0 1:8 2:9 3:3 4:9 5:3 6:4 7:2 8:1 9:3 10:10 11:3 26:1 27:1 90:1 91:1 132:1 253:0
0 4:2 5:2 9:2 31:2 50:1 51:1 52:1 77:2 78:2 79:1 80:2 81:2 124:2 253:0
0 4:5 5:6 9:6 10:2 11:3 12:2 13:1 23:1 24:1 28:1 35:1 38:1 39:2 40:1 253:0
0 1:6 2:6 4:14 5:3 6:2 9:3 10:16 11:3 15:3 16:1 20:6 253:0
0 1:6 2:6 4:7 6:4 10:7 14:2 15:2 16:1 20:3 23:2 24:4 253:0
0 1:9 2:8 3:2 4:4 6:4 7:2 8:1 9:1 10:1 15:1 20:1 22:1 23:1 24:1 25:2 26:2 27:1 29:2 66:2 253:0
0 1:6 2:6 4:2 5:1 6:2 9:1 10:1 14:6 15:6 16:3 253:0
0 1:4 2:3 3:2 4:1 6:2 7:2 8:1 15:1 20:1 22:1 23:1 24:1 74:1 105:2 253:0
0 1:6 2:6 4:12 6:6 10:13 15:1 20:1 22:1 23:1 24:1 26:2 27:1 253:0
0 1:6 2:6 4:6 5:4 6:6 9:5 11:4 23:1 24:1 28:1 29:2 253:0
0 1:7 2:6 3:2 4:5 5:2 6:1 7:4 8:2 9:7 10:3 11:6 14:2 15:4 16:2 20:5 22:1 23:3 24:2 25:1 26:2 27:1 28:3 29:1 35:1 36:1 37:1 66:2 253:0
0 4:23 10:33 12:5 13:2 15:3 16:1 20:5 22:1 23:3 24:5 27:2 76:5 253:0
0 1:2 2:1 3:2 4:10 5:4 6:3 7:4 8:2 9:4 10:9 11:3 25:1 36:2 37:1 253:0
0 1:3 2:1 3:7 7:12 8:6 9:3 29:1 36:3 37:4 62:2 66:2 74:1 92:2 93:1 97:1 110:2 115:1 116:1 117:1 253:0
0 1:12 2:12 3:5 4:6 5:3 6:5 7:4 8:2 9:3 10:3 11:3 25:1 33:2 34:1 253:0
0 1:12 2:12 4:9 5:5 6:2 9:5 10:9 11:4 14:4 15:4 16:2 20:3 23:1 24:1 28:1 253:0
0 1:1 3:2 4:2 5:3 7:4 8:2 9:4 11:1 15:1 20:1 23:1 24:1 28:1 36:2 37:1 66:2 74:1 97:1 115:1 116:1 117:1 253:0
0 1:12 2:12 4:5 5:5 6:6 9:7 10:1 11:6 29:2 38:1 39:1 40:1 72:1 253:0
0 1:6 2:6 4:10 5:3 6:2 9:6 10:10 11:4 15:4 16:2 20:4 22:1 23:4 24:2 28:5 32:1 35:1 253:0
0 1:12 2:12 4:1 6:4 9:2 14:4 15:2 26:4 27:2 29:4 74:2 97:2 115:2 116:2 117:2 253:0
0 1:13 2:12 3:1 4:5 5:2 6:7 7:2 8:1 9:7 11:5 15:2 16:1 17:1 18:1 19:2 20:2 21:1 23:1 28:2 29:4 35:1 36:1 136:1 153:1 253:0
0 1:4 2:3 3:2 4:6 5:5 6:2 7:2 8:1 9:4 10:4 11:3 15:1 20:2 23:1 24:1 28:1 253:0
0 1:10 2:9 3:2 4:5 5:7 7:2 8:1 9:9 10:1 11:9 15:1 20:1 26:2 27:1 29:3 36:1 62:2 92:4 93:1 253:0
0 1:6 2:6 4:3 5:4 6:4 9:8 11:12 26:8 27:4 253:0
0 1:7 2:6 3:2 4:7 6:5 7:4 8:2 10:9 25:1 37:1 253:0
0 1:12 2:12 4:3 5:2 6:2 9:3 10:1 11:1 14:4 15:2 16:1 23:1 28:2 33:2 34:1 35:1 74:1 97:2 118:2 119:1 253:0
0 1:6 2:6 4:5 5:3 9:3 10:1 11:3 14:4 15:6 16:3 20:3 22:1 23:2 24:2 28:1 62:2 93:1 100:1 107:2 253:0
0 1:14 2:15 3:3 4:8 5:3 6:4 7:2 8:1 9:3 10:5 11:3 12:3 13:1 14:2 15:1 253:0
0 1:2 2:1 3:5 4:6 7:8 8:4 9:2 10:3 15:6 16:3 20:8 32:1 36:2 37:3 66:2 253:0
0 1:8 2:9 3:3 4:7 5:4 6:5 7:2 8:1 9:3 10:4 11:1 25:1 66:2 253:0
0 1:6 2:6 4:4 5:3 9:3 11:3 14:4 15:4 16:2 20:1 23:2 24:2 28:1 62:4 93:2 100:1 107:4 109:1 253:0
0 1:6 2:6 26:2 27:1 253:0
0 4:7 5:6 9:6 11:6 15:8 16:2 20:8 22:4 23:4 24:4 253:0
0 1:6 2:6 4:3 6:2 9:1 10:1 15:4 16:1 20:5 22:1 23:1 24:1 29:2 253:0
0 1:6 2:6 4:3 5:2 9:4 10:2 11:1 23:1 26:2 27:1 28:2 35:1 58:1 59:1 60:1 61:2 62:1 63:2 64:2 65:1 88:1 92:2 114:3 253:0
0 1:12 2:12 4:7 5:2 6:4 9:7 10:8 11:5 14:2 15:3 16:1 20:1 22:1 23:1 28:1 29:4 32:2 74:1 75:1 97:2 253:0
0 1:12 2:12 4:7 5:2 6:8 9:3 10:4 11:3 12:4 13:1 253:0
0 4:28 10:45 15:3 20:5 22:1 23:1 24:1 253:0
0 4:21 10:31 12:7 13:3 15:3 20:6 23:2 24:4 27:1 76:1 133:1 253:0
0 1:6 2:6 4:7 5:4 6:4 9:5 10:2 11:4 15:2 20:2 22:2 23:3 24:3 28:1 29:2 253:0
0 4:23 10:28 12:2 13:1 15:4 16:1 20:5 22:1 23:2 24:3 253:0
0 1:7 2:6 3:2 4:3 5:2 6:2 7:4 8:2 9:1 10:1 25:2 37:1 66:2 253:0
0 1:6 2:6 4:6 5:2 6:2 9:3 10:4 11:1 29:2 34:3 35:1 58:1 59:2 60:2 61:4 62:2 63:4 64:4 65:2 92:4 112:3 113:3 253:0
0 1:8 2:9 3:3 4:8 5:4 6:1 7:2 8:1 9:2 10:5 11:1 14:2 15:5 16:2 20:6 22:1 23:1 24:1 25:1 253:0
0 1:1 3:2 4:3 7:4 8:2 9:2 10:2 15:5 16:1 20:6 32:1 36:2 37:1 66:2 74:1 97:1 115:1 116:1 117:1 253:0
0 1:6 2:6 4:15 5:3 6:2 9:3 10:14 11:3 15:3 16:1 20:7 22:1 23:1 24:1 118:2 119:1 253:0
0 1:6 2:6 14:2 15:3 51:3 53:3 59:1 60:1 61:2 62:1 63:2 64:2 65:1 82:3 92:2 129:3 130:1 253:0
0 1:6 2:6 4:11 5:6 6:2 9:7 10:8 11:6 12:3 13:1 23:2 24:3 28:1 33:2 34:1 38:1 39:1 40:1 41:1 62:2 93:1 100:1 107:1 149:1 253:0
0 1:6 2:6 4:4 5:1 6:4 9:3 10:3 23:1 24:1 28:1 35:1 38:1 39:2 40:1 62:2 63:2 64:4 65:1 92:2 93:1 253:0
0 1:5 2:3 3:5 4:1 6:1 7:8 8:4 9:1 14:1 15:2 16:1 20:1 30:2 31:1 36:2 37:3 42:2 43:1 44:2 102:1 103:1 253:0
0 1:12 2:12 4:2 5:1 6:2 9:2 11:1 14:4 15:3 16:1 20:1 22:1 23:2 24:2 28:1 29:2 253:0
0 1:6 2:6 4:3 5:2 6:2 9:2 10:1 11:1 14:2 15:3 16:1 20:2 23:1 24:1 26:2 27:1 28:1 32:1 74:1 75:1 97:2 253:0
0 1:12 2:12 4:7 5:4 6:6 9:3 10:4 11:1 14:6 15:6 16:2 20:2 23:1 24:1 28:1 55:1 253:0
0 1:9 2:8 3:2 7:2 9:2 26:1 27:1 29:3 36:1 58:1 59:1 60:1 61:2 62:1 63:2 64:2 65:1 92:2 94:2 95:1 132:1 253:0
0 1:7 2:3 3:8 4:9 5:5 6:3 7:8 8:3 9:5 10:6 11:2 23:1 24:1 25:3 28:1 29:3 34:3 36:1 94:2 95:2 96:2 112:3 113:3 144:1 253:0
0 1:12 2:12 4:6 5:4 6:4 9:4 10:3 11:2 14:2 15:2 16:1 23:1 24:1 28:1 29:2 58:2 59:1 60:1 61:2 62:1 63:2 64:2 65:1 92:2 253:0
0 4:2 15:2 20:2 62:2 93:1 107:2 253:0
0 1:12 2:12 4:11 5:7 6:8 9:11 10:6 11:10 23:3 24:2 28:4 29:2 35:1 253:0
0 1:6 2:6 4:12 5:3 6:4 9:3 10:16 11:3 14:2 15:2 16:1 253:0
0 1:6 2:6 4:24 6:2 10:34 12:5 13:2 15:6 16:2 20:12 23:2 24:4 34:1 55:1 112:3 253:0
0 4:9 5:5 9:6 10:8 11:6 23:1 24:1 28:1 253:0
0 1:7 2:6 3:1 4:3 5:1 6:3 7:2 8:1 9:2 11:1 14:4 15:5 16:2 20:3 22:1 23:2 24:2 25:1 28:1 36:1 42:1 43:1 44:2 45:1 142:1 253:0
0 1:12 2:12 4:14 5:10 6:4 9:10 10:11 11:9 23:1 24:1 26:2 27:1 28:1 29:4 253:0
0 1:1 3:2 4:2 5:2 6:1 7:4 8:2 9:5 11:1 23:2 24:1 25:1 27:1 28:3 29:1 35:1 36:1 37:1 66:2 76:1 88:1 114:2 127:1 128:1 154:1 253:0
0 4:7 5:2 9:5 10:10 11:4 12:1 13:1 23:3 24:2 28:4 31:1 35:1 124:1 173:1 253:0
0 1:12 2:12 4:7 6:6 10:8 14:2 15:3 16:1 20:2 22:1 23:2 24:3 26:4 27:2 253:0
0 1:3 2:2 4:19 6:2 10:28 15:6 16:3 17:2 18:1 19:2 20:7 22:3 23:4 24:5 253:0
0 1:8 2:9 3:3 4:2 5:1 6:2 7:2 8:1 9:3 10:1 11:3 14:2 15:1 253:0
0 4:3 10:3 253:0
0 1:7 2:6 3:5 4:3 6:1 7:6 8:3 9:2 10:1 11:1 15:2 16:1 20:2 22:1 23:1 25:3 28:1 29:2 32:1 37:1 42:1 43:1 44:2 45:1 253:0
0 4:7 5:4 9:3 10:6 11:3 15:4 20:8 253:0
0 1:11 2:9 3:4 4:7 5:2 6:4 7:6 8:3 9:4 10:6 11:2 25:2 33:2 34:1 35:1 37:1 39:2 40:1 253:0
0 1:12 2:12 4:7 5:3 6:10 9:7 10:1 11:6 12:2 13:1 14:4 15:4 16:2 23:1 28:2 29:2 35:1 38:1 39:1 40:1 41:1 72:1 253:0
0 1:6 2:6 4:3 6:2 9:1 10:2 15:2 16:1 20:1 22:1 23:1 28:1 32:1 253:0
0 1:6 2:6 4:4 5:3 9:2 10:2 11:1 14:2 15:3 16:1 20:3 62:2 92:2 93:1 253:0
0 1:10 2:9 3:2 4:4 5:1 6:6 7:6 8:2 9:3 12:1 13:1 23:1 24:1 25:2 28:1 29:1 34:6 36:1 37:2 41:1 66:1 88:1 94:2 95:1 96:1 112:6 113:6 114:2 253:0
0 4:4 10:3 15:1 20:1 63:2 65:1 83:1 84:2 86:4 137:1 253:0
0 1:6 2:6 4:11 5:3 6:4 9:2 10:11 11:1 14:2 15:1 38:2 40:1 72:2 253:0
0 1:12 2:12 4:11 5:5 6:4 9:4 10:9 11:6 15:3 16:1 20:5 22:1 23:2 24:3 253:0
0 4:6 5:2 9:5 10:4 11:3 12:5 13:2 15:1 20:2 23:1 24:2 35:1 39:2 40:2 41:1 72:2 88:1 89:1 114:1 253:0
0 1:12 2:12 4:8 5:3 6:4 9:4 10:5 11:6 15:4 16:2 20:7 55:1 253:0
0 1:6 2:6 4:9 5:7 9:5 10:7 11:4 14:2 15:3 16:1 20:3 22:1 23:3 24:3 28:2 62:2 93:1 100:1 107:4 253:0
0 1:6 2:6 4:12 5:7 6:4 9:4 10:11 11:1 15:1 20:1 23:2 24:2 28:2 74:1 97:1 118:4 119:2 253:0
0 4:4 5:2 9:6 10:2 11:2 35:2 38:1 39:4 40:2 253:0
0 4:4 5:3 9:4 10:4 11:1 35:1 38:1 39:2 40:1 91:1 157:1 253:0
0 4:15 5:2 9:4 10:16 11:2 12:4 13:2 15:4 16:2 20:12 23:2 24:4 41:2 253:0
0 1:6 2:6 4:15 6:4 10:22 14:2 15:4 16:1 20:4 253:0
0 1:18 2:18 4:4 6:10 10:1 14:2 15:2 20:1 22:1 23:2 24:3 253:0
0 1:6 2:6 4:5 5:2 6:2 9:4 11:2 15:4 16:2 20:4 22:2 23:4 24:4 26:2 27:1 28:2 29:4 90:1 91:1 253:0
0 1:6 2:6 4:9 5:2 6:4 9:3 10:12 11:3 14:2 15:1 253:0
0 1:8 2:6 3:7 4:3 6:5 7:8 8:4 9:1 14:3 15:4 16:2 25:1 36:2 37:2 59:1 60:1 62:1 66:2 103:1 107:1 122:2 253:0
0 1:12 2:12 4:9 5:4 6:2 9:5 10:9 11:4 15:2 16:1 20:2 22:1 23:1 24:1 29:2 253:0
0 1:6 2:6 4:6 5:2 6:2 9:2 10:4 11:1 14:6 15:7 16:3 20:1 22:1 23:2 24:2 28:1 253:0
0 1:12 2:12 4:5 5:2 6:6 9:3 10:5 11:3 253:0
0 1:12 2:12 4:6 5:4 9:6 10:5 11:6 29:4 62:4 63:2 64:4 65:1 92:6 93:2 253:0
0 1:12 2:8 3:9 4:3 6:6 7:9 8:4 10:1 23:1 24:2 25:2 37:1 94:3 95:1 253:0
0 1:14 2:13 3:5 4:6 5:7 6:4 7:8 8:4 9:6 10:2 11:6 15:1 20:2 33:4 34:2 37:3 62:2 92:1 93:1 107:1 110:1 253:0
0 1:7 2:6 3:1 4:3 5:2 6:3 7:2 8:1 9:4 11:2 17:1 18:1 19:2 21:2 23:2 24:1 25:1 28:3 30:2 31:1 35:1 40:1 72:1 88:1 89:1 114:2 136:1 253:0
0 4:11 5:7 9:6 10:8 11:6 12:2 13:1 15:2 20:3 22:1 23:2 24:2 28:1 39:1 40:1 41:1 62:2 72:1 93:1 106:1 107:3 253:0
0 1:6 2:6 4:2 5:2 6:4 9:3 11:3 15:2 23:2 24:2 28:2 51:2 53:1 62:1 82:2 100:1 129:2 130:1 145:1 146:1 147:2 193:1 253:0
0 1:8 2:9 4:9 5:6 6:3 9:7 10:3 11:6 12:6 13:3 17:3 18:1 19:2 21:1 23:1 24:1 28:1 38:1 39:1 40:1 41:2 72:1 253:0
0 4:27 10:41 12:5 13:2 15:3 16:1 20:4 22:1 23:3 24:5 34:2 112:5 253:0
0 1:6 2:6 3:2 4:3 7:2 8:1 15:4 16:2 17:2 18:1 19:2 20:4 21:1 22:1 23:1 24:1 25:1 26:2 27:1 136:1 253:0
0 4:1 5:1 9:2 11:1 15:1 20:1 23:1 27:3 28:1 32:1 76:3 104:3 253:0
0 4:14 10:11 15:7 16:3 20:9 22:3 23:3 24:3 253:0
0 1:12 2:12 4:9 6:8 10:6 14:4 15:3 16:1 20:1 22:1 23:2 24:3 62:2 63:1 64:2 92:2 93:1 210:2 211:1 212:1 253:0
0 1:6 2:6 4:1 5:1 6:2 9:3 11:1 23:1 24:1 26:2 27:1 28:1 58:1 59:1 60:1 61:2 62:1 63:2 64:2 65:1 92:2 253:0
0 1:7 2:5 3:2 4:3 6:3 7:2 8:1 9:1 12:2 13:1 15:1 17:2 18:1 19:2 20:1 21:1 25:2 29:1 74:1 97:1 115:1 116:1 117:1 153:1 253:0
0 1:12 2:12 4:5 5:4 6:4 9:5 10:1 11:4 15:2 20:2 22:2 23:4 24:5 26:2 27:1 28:1 29:2 253:0
0 4:8 5:3 9:3 10:9 11:3 15:1 40:1 72:2 73:1 74:1 75:1 90:1 91:1 253:0
0 1:8 2:7 3:2 4:4 5:2 6:5 7:2 9:5 10:1 11:3 23:1 24:1 25:1 28:1 29:1 33:2 34:1 36:1 38:1 40:1 66:1 72:2 94:2 95:1 96:1 253:0
0 1:12 2:12 4:11 5:6 6:8 9:4 10:8 11:2 14:8 15:8 16:4 253:0
0 1:6 2:6 4:9 5:7 6:2 9:9 10:5 11:9 12:2 13:1 15:1 20:1 22:1 23:2 24:3 29:4 33:2 34:1 41:1 253:0
0 1:6 2:6 4:6 5:2 6:4 9:2 10:2 11:1 12:2 13:1 14:2 15:4 16:2 20:4 253:0
0 1:4 2:3 3:2 4:7 5:2 7:2 8:1 9:3 10:6 11:1 23:2 24:2 28:2 29:2 74:1 97:1 253:0
0 4:5 5:4 9:6 10:2 11:4 12:3 13:1 35:1 39:2 40:1 253:0
0 1:6 2:6 4:4 5:5 9:6 10:1 11:3 12:2 13:1 23:1 24:1 28:1 29:2 41:2 88:1 114:4 253:0
0 1:6 2:6 4:1 6:2 14:4 15:3 16:1 23:1 24:1 253:0
0 1:14 2:17 3:4 4:5 5:4 7:2 8:1 9:5 10:1 11:4 15:2 16:1 20:2 22:1 23:1 24:1 27:2 29:2 76:2 253:0
0 1:6 2:6 4:1 6:2 14:2 15:3 16:1 20:1 22:1 23:1 24:1 253:0
0 1:7 2:6 3:2 4:3 5:1 6:2 7:4 8:2 9:1 10:1 12:1 13:1 15:2 16:1 20:3 26:4 27:2 37:1 66:2 253:0
0 1:12 2:12 4:8 5:1 6:6 9:2 10:6 11:1 14:2 15:2 16:1 20:2 23:2 24:1 28:2 62:2 93:1 100:1 107:2 109:1 253:0
0 1:11 2:14 4:1 6:2 14:4 15:2 50:2 51:6 52:6 53:6 82:2 253:0
0 1:1 3:2 4:6 5:4 6:1 7:4 8:2 9:4 10:1 11:3 12:4 13:2 15:3 16:1 20:3 22:1 23:2 24:2 25:3 28:1 37:1 41:1 62:2 66:2 93:1 100:1 106:1 107:1 253:0
0 4:28 5:2 9:3 10:42 11:3 15:4 20:7 22:1 23:2 24:2 28:1 253:0
0 1:8 2:7 3:2 4:2 6:5 7:4 8:2 9:2 25:1 26:4 27:2 29:1 36:3 37:1 253:0
0 1:15 2:14 3:2 4:6 5:2 6:6 7:2 8:1 9:3 10:2 11:1 14:4 15:4 16:2 20:1 22:1 23:3 24:4 25:2 28:1 66:2 253:0
0 4:24 10:38 15:2 20:4 253:0
0 4:23 10:35 12:5 13:2 15:3 20:6 23:2 24:4 34:2 112:5 253:0
0 1:12 2:12 4:4 5:1 6:4 9:1 10:2 15:1 20:1 22:1 23:1 24:1 26:2 27:1 58:1 59:1 60:1 61:2 62:1 63:2 64:2 65:1 92:2 253:0
0 4:2 10:1 23:1 24:2 253:0
0 1:7 2:6 3:2 4:9 5:4 6:4 7:4 8:2 9:4 10:6 11:3 15:2 16:1 20:4 22:1 23:2 24:2 25:2 28:1 29:2 30:2 31:1 37:1 66:2 253:0
0 1:7 2:6 3:1 4:1 6:3 7:2 8:1 9:2 29:1 36:2 42:1 43:1 44:2 45:1 102:1 142:1 253:0
0 1:2 2:1 3:2 4:10 5:9 7:4 8:2 9:9 10:8 11:9 23:2 24:2 28:2 36:2 37:1 253:0
0 1:6 2:6 4:2 5:2 6:2 9:5 11:2 29:2 33:2 34:1 35:1 38:1 39:2 40:1 253:0
0 1:12 2:12 4:7 5:3 6:4 9:4 10:6 11:1 26:2 27:1 29:2 38:2 39:1 40:2 72:3 73:1 74:1 97:1 253:0
0 1:12 2:12 4:4 5:3 6:4 9:4 10:3 11:2 23:3 24:3 26:2 27:1 28:3 29:2 253:0
0 1:12 2:12 4:10 5:5 6:4 9:8 10:9 11:12 15:2 16:1 20:2 90:1 91:1 253:0
0 1:14 2:15 3:3 4:9 5:7 6:5 7:2 8:1 9:6 10:5 11:6 23:1 24:2 25:1 33:2 34:1 253:0
0 1:6 2:6 4:14 5:9 6:2 9:7 10:13 11:6 23:1 24:1 26:2 27:1 28:1 253:0
0 1:2 2:1 3:2 4:6 5:4 6:3 7:7 8:3 9:3 10:4 11:3 25:1 29:1 36:1 37:4 94:3 95:1 253:0
0 1:6 2:6 3:4 4:4 6:2 7:4 8:2 9:2 10:3 11:1 15:2 16:1 22:1 23:1 28:1 32:1 36:2 37:1 253:0
0 1:6 2:6 4:15 5:6 6:2 9:6 10:15 11:6 15:1 20:3 23:1 24:1 26:2 27:1 28:1 253:0
0 1:12 2:12 4:2 6:4 9:2 11:1 15:2 20:2 22:2 23:2 24:2 26:2 27:1 29:4 253:0
0 1:11 2:11 3:5 4:5 5:1 6:3 7:4 8:1 9:2 10:3 14:1 15:2 16:1 20:1 23:1 24:1 25:1 26:2 27:1 28:1 29:2 58:1 59:1 60:1 61:2 62:1 63:2 64:2 65:1 66:1 94:2 95:1 96:1 103:1 253:0
0 1:6 2:6 4:12 5:3 6:4 9:2 10:16 11:1 14:2 15:1 253:0
0 1:11 2:14 4:3 6:2 10:3 14:2 15:3 16:1 20:1 253:0
0 1:6 2:6 4:4 7:2 9:1 10:4 14:2 15:2 16:1 25:1 36:1 43:1 44:2 45:2 58:1 59:1 60:1 61:2 62:1 63:2 64:2 65:1 92:2 94:2 95:1 102:1 142:1 253:0
0 1:12 2:12 3:4 4:6 5:1 6:4 7:4 8:2 9:1 10:5 14:2 15:2 16:1 23:1 24:1 25:2 28:1 37:1 40:1 72:2 88:1 89:1 114:1 253:0
0 1:6 2:6 4:16 5:6 6:2 9:6 10:18 11:6 15:1 20:3 23:1 24:1 26:2 27:1 28:1 253:0
0 1:12 2:12 4:5 5:3 6:6 9:3 11:3 14:2 15:3 16:1 20:2 22:1 23:1 24:1 253:0
0 4:19 10:20 12:4 13:2 15:3 20:6 22:1 23:2 24:3 253:0
0 1:12 2:12 4:8 5:3 6:4 9:3 10:6 11:3 15:3 16:1 20:5 22:1 23:1 24:1 253:0
0 4:7 5:5 9:5 10:5 11:4 23:1 24:1 28:1 62:2 93:1 100:1 107:4 253:0
0 1:11 2:11 3:5 4:5 5:1 6:3 7:4 8:1 9:4 10:5 11:1 23:1 24:1 25:1 28:1 29:2 35:1 39:2 40:1 66:1 94:2 95:1 96:1 253:0
0 1:11 2:14 4:4 5:3 9:2 10:2 11:1 14:2 15:3 16:1 20:3 253:0
0 4:4 10:1 15:4 16:2 20:5 22:2 23:2 24:2 253:0
0 4:3 5:2 9:1 10:2 15:1 20:1 22:1 23:1 24:1 62:2 93:1 107:1 253:0
0 1:6 2:6 4:9 5:1 6:4 9:3 10:8 11:3 12:4 13:1 15:2 16:1 20:4 253:0
0 1:12 2:12 4:9 5:7 6:2 9:8 10:8 11:7 23:2 24:3 28:1 29:2 33:4 34:2 35:1 253:0
0 1:12 2:12 4:7 5:4 6:4 9:3 10:4 11:3 15:5 16:2 20:7 22:1 23:2 24:2 28:1 55:1 253:0
0 1:6 2:6 4:8 5:3 6:4 9:3 10:6 11:3 23:1 24:2 34:3 112:3 113:3 253:0
0 4:2 9:2 10:1 11:1 12:2 13:2 23:1 24:2 41:2 68:2 167:2 184:2 253:0
0 1:9 2:10 3:3 4:2 5:2 7:2 8:1 9:5 10:1 11:4 29:2 67:2 68:1 253:0
0 1:6 2:4 3:4 4:4 5:2 6:2 7:4 8:1 9:4 11:3 15:2 16:1 20:2 25:2 29:2 36:2 87:2 88:1 94:2 95:1 114:1 253:0
0 1:12 2:13 3:4 4:2 6:3 7:4 8:1 9:1 10:1 25:1 29:1 36:1 88:1 94:2 95:1 114:1 253:0
0 1:10 2:9 3:2 4:4 5:3 6:3 7:2 8:1 9:3 10:3 11:1 15:1 20:3 25:1 26:2 27:1 38:1 39:1 40:1 72:1 253:0
0 4:5 10:4 15:7 16:1 20:11 55:1 253:0
0 4:6 5:4 9:3 10:5 11:3 23:2 24:2 28:2 253:0
0 1:12 2:12 3:2 4:6 5:2 6:6 7:2 8:1 9:2 10:2 11:1 15:1 20:1 22:1 23:2 24:2 25:1 28:1 34:3 40:1 42:2 43:1 44:2 45:1 72:2 88:1 89:1 102:1 112:3 113:3 114:2 253:0
0 4:8 5:8 9:10 10:2 11:8 12:4 13:2 15:4 16:2 20:2 22:2 23:4 24:4 28:2 32:2 41:4 253:0
0 1:6 2:6 4:12 5:7 6:2 7:2 9:7 10:11 11:4 12:1 13:1 18:1 19:2 21:2 23:3 24:4 25:2 28:2 38:1 39:1 40:1 41:2 72:1 94:2 95:1 136:2 253:0
0 1:6 2:6 4:6 5:4 6:4 9:4 10:6 11:2 23:2 24:1 28:3 35:1 253:0
0 1:6 2:6 4:9 5:3 6:2 9:3 10:9 11:3 15:3 16:1 20:3 22:1 23:1 24:1 253:0
0 1:6 2:6 4:4 5:3 6:2 9:3 10:2 11:1 14:2 15:2 20:2 29:2 58:1 59:1 60:1 61:2 62:1 63:2 64:2 65:1 253:0
0 1:6 2:6 4:4 5:5 9:5 11:4 14:4 15:4 16:2 20:1 23:1 24:1 28:1 253:0
0 4:7 10:4 12:2 13:1 15:6 16:3 20:10 22:2 23:2 24:2 253:0
0 1:1 3:2 4:1 5:1 6:1 7:4 8:2 9:3 23:1 24:1 25:1 28:1 29:1 36:1 37:1 88:1 114:1 127:1 128:1 154:1 253:0
0 1:6 2:6 4:6 6:2 10:4 12:2 13:1 14:2 15:4 16:2 20:2 22:1 23:1 24:1 253:0
0 4:4 10:4 15:1 20:3 253:0
0 1:9 2:8 3:2 4:4 5:1 6:2 7:2 8:1 9:4 10:2 11:3 12:2 13:1 15:1 20:1 22:1 23:2 24:3 29:4 33:2 34:1 41:1 66:2 253:0
0 1:6 2:6 4:7 5:2 6:2 9:2 10:7 11:1 15:1 20:1 22:1 23:1 24:1 26:2 27:1 58:2 59:1 60:1 61:2 62:1 63:2 64:2 65:1 92:2 253:0
0 4:14 10:22 12:2 13:1 15:2 16:1 20:4 27:6 76:12 104:1 133:2 253:0
0 4:1 5:1 9:4 11:6 12:1 13:1 15:2 16:1 20:1 54:1 253:0
0 1:6 2:6 4:10 5:7 6:2 9:8 10:4 11:12 15:4 16:2 20:4 22:1 23:1 24:1 253:0
0 1:13 2:12 3:2 4:5 5:2 6:8 7:4 8:2 9:1 10:3 26:4 27:2 37:1 66:2 253:0
0 1:20 2:21 3:3 4:6 5:5 6:7 7:2 8:1 9:6 10:2 11:4 23:2 24:2 25:1 28:2 29:2 33:2 34:1 35:1 38:1 40:1 72:2 253:0
0 4:2 5:3 9:2 10:1 15:1 20:1 23:1 24:1 28:1 74:1 75:1 97:1 253:0
0 1:6 2:6 4:8 6:2 10:5 12:6 13:2 14:4 15:2 253:0
0 1:6 2:6 4:5 5:2 6:2 9:6 10:7 11:6 15:4 16:2 23:3 24:2 28:4 32:2 35:1 253:0
0 1:11 2:14 4:2 6:4 15:1 20:1 74:1 75:1 253:0
0 1:6 2:6 4:7 5:4 6:4 9:5 10:4 11:4 23:1 24:1 28:1 29:2 253:0
0 4:6 5:11 9:10 10:1 11:8 23:4 24:4 28:4 253:0
0 1:12 2:12 4:3 5:4 9:4 11:3 62:2 63:1 64:2 92:4 93:1 210:2 211:1 212:1 213:1 253:0
0 1:9 2:8 3:2 4:16 6:4 7:2 8:1 9:1 10:14 12:2 13:1 15:3 20:5 22:1 23:1 24:1 25:2 29:2 66:2 253:0
0 4:11 5:8 9:5 10:10 11:2 15:1 20:1 22:1 23:3 24:3 28:2 62:2 93:1 107:6 253:0
0 4:3 5:3 9:1 10:3 253:0
0 1:11 2:14 14:2 15:1 253:0
0 1:10 2:9 3:2 4:2 6:4 7:2 8:1 15:2 16:1 20:2 22:1 23:1 24:1 253:0
0 4:24 10:34 12:5 13:2 15:4 16:2 20:9 23:2 24:4 27:2 34:2 55:1 76:5 112:3 253:0
0 1:12 2:12 4:6 5:3 6:6 9:4 10:3 11:3 14:4 15:4 16:2 29:2 253:0
0 1:12 2:12 4:1 5:1 9:7 11:3 15:6 16:3 20:1 22:2 23:3 24:1 28:3 29:4 32:2 35:1 38:1 39:2 40:1 62:2 92:4 93:1 253:0
0 1:6 2:6 4:4 5:5 6:2 9:6 11:4 23:1 24:1 28:1 29:2 58:1 59:1 60:1 61:2 62:1 63:2 64:2 65:1 253:0
0 1:6 2:6 4:6 5:6 6:2 9:5 10:3 11:4 14:4 15:3 16:1 23:1 24:1 28:1 67:2 68:1 253:0
0 1:9 2:8 3:2 4:6 5:4 6:3 7:2 9:3 10:4 11:1 14:2 15:3 16:1 20:3 25:1 29:1 36:1 88:1 94:2 95:1 114:1 253:0
0 1:11 2:14 4:2 6:2 10:1 14:2 15:3 16:1 20:1 22:1 23:1 24:1 253:0
0 4:13 10:10 15:10 16:4 20:16 55:2 253:0
0 1:6 2:6 4:10 6:2 10:9 14:4 15:4 16:1 20:2 23:1 24:2 253:0
0 1:12 2:12 4:10 5:4 6:4 9:3 10:10 11:3 15:2 16:1 20:2 23:1 24:2 253:0
0 1:6 2:6 4:1 6:2 7:2 14:2 15:1 18:1 19:2 21:1 25:1 94:2 95:1 136:2 253:0
0 4:22 10:31 12:7 13:3 15:2 16:1 20:4 22:1 23:3 24:5 27:1 76:1 133:1 253:0
0 1:12 2:12 4:3 6:8 9:2 29:4 253:0
0 1:6 2:6 4:2 5:2 9:3 10:1 11:1 26:2 27:1 29:2 35:1 58:1 59:2 60:2 61:4 62:2 63:4 64:4 65:2 92:4 253:0
0 1:6 2:6 4:4 5:2 6:2 9:3 10:1 11:3 12:3 13:2 14:6 15:6 16:3 23:1 24:2 41:1 253:0
0 4:7 5:8 9:5 10:6 11:2 15:2 16:1 20:1 22:1 23:1 28:1 32:1 50:1 77:5 78:3 79:3 81:3 253:0
0 1:6 2:6 4:6 5:7 9:8 10:1 11:7 23:1 28:2 35:1 62:2 63:2 64:4 65:1 92:2 93:1 107:1 253:0
0 1:7 2:6 3:2 4:4 6:4 7:4 8:2 10:1 25:4 37:1 90:1 91:1 253:0
0 1:4 2:3 3:2 4:8 5:6 7:2 8:1 9:6 10:5 11:6 23:1 24:1 28:1 29:1 36:1 253:0
0 4:4 5:2 9:2 10:3 11:1 253:0
0 1:6 2:6 4:6 5:3 6:4 9:3 10:2 11:3 62:2 63:1 64:2 93:1 107:2 253:0
0 1:11 2:14 4:4 5:2 9:2 10:2 11:1 14:2 15:2 16:1 20:1 23:1 24:1 28:1 40:1 72:2 88:1 89:1 114:2 253:0
0 1:6 2:6 4:1 6:2 15:1 20:1 22:1 23:1 24:1 59:1 60:1 61:2 62:1 63:2 64:2 65:1 92:2 253:0
0 4:5 5:3 9:2 10:2 11:1 12:2 13:1 15:2 20:2 23:1 24:2 40:1 41:1 72:1 73:1 74:1 75:1 141:1 253:0
0 1:6 2:6 4:13 5:1 6:2 9:3 10:21 11:3 15:2 16:1 20:4 253:0
0 1:6 2:6 4:13 5:3 6:2 9:4 10:14 11:6 15:1 20:3 253:0
0 4:2 5:1 9:4 10:1 11:6 15:4 16:2 20:3 55:1 253:0
0 1:6 2:6 4:5 5:4 9:8 10:2 11:8 12:2 13:1 23:1 24:1 28:1 29:2 41:2 88:1 114:4 253:0
0 1:3 2:2 4:6 5:3 6:1 9:4 10:2 11:6 15:2 16:1 17:2 18:1 19:2 20:3 21:1 22:1 23:1 24:1 30:1 31:1 214:1 253:0
0 4:8 5:2 9:4 10:11 11:2 12:1 13:1 23:2 24:2 28:2 35:1 98:1 99:2 253:0
0 1:4 2:2 3:1 4:2 5:2 6:2 7:2 8:1 9:4 11:1 17:2 18:1 19:2 21:1 25:1 29:1 36:1 42:1 43:1 44:2 45:1 66:2 74:1 97:1 115:1 116:1 117:1 142:1 153:1 253:0
0 1:14 2:17 3:4 7:2 8:1 9:1 29:2 253:0
0 1:12 2:12 9:6 11:4 23:1 26:2 27:1 28:2 29:4 35:1 58:1 59:1 60:1 61:2 62:1 63:2 64:2 65:1 92:2 253:0
0 1:7 2:7 3:4 4:13 5:6 7:4 8:2 9:6 10:11 11:6 12:4 13:2 15:4 16:2 20:6 23:2 24:2 26:1 27:1 28:2 29:1 36:1 37:1 55:1 132:1 253:0
0 1:11 2:14 4:1 6:2 14:4 15:2 63:4 65:2 83:2 84:4 86:8 137:2 253:0
0 1:14 2:15 3:3 4:4 5:2 6:5 7:2 8:1 9:2 10:1 14:2 15:2 16:1 25:1 66:2 253:0
0 4:6 10:5 15:4 16:1 20:7 27:3 55:1 76:3 104:3 253:0
0 1:12 2:12 4:8 5:4 6:2 9:8 10:7 11:7 23:2 24:2 28:2 29:4 33:2 34:1 35:1 253:0
0 1:6 2:6 4:11 6:2 10:14 15:2 20:4 22:1 23:1 24:1 253:0
0 1:12 2:12 3:5 4:6 5:3 6:6 7:4 8:2 9:4 10:2 11:3 25:2 26:2 27:1 66:2 253:0
0 1:6 2:6 4:10 5:2 6:2 9:4 10:10 11:6 15:2 16:1 20:3 22:1 23:1 24:1 253:0
0 1:12 2:12 4:3 5:1 6:4 9:4 10:1 11:3 23:1 26:2 27:1 28:2 29:2 34:3 35:1 38:1 40:1 72:2 112:3 113:3 253:0
0 1:2 2:1 3:5 4:4 5:1 7:8 8:4 9:2 10:3 15:5 16:1 20:8 29:1 32:1 36:1 37:3 50:1 51:3 52:3 53:3 66:2 82:1 253:0
0 1:2 2:1 3:2 4:15 5:8 7:4 8:2 9:9 10:17 11:9 23:2 24:2 28:2 36:2 37:1 253:0
0 1:6 2:6 4:4 5:2 6:2 9:3 10:3 11:3 14:2 15:2 16:1 20:2 253:0
0 1:6 2:6 4:4 5:3 6:2 9:1 10:4 26:2 27:1 253:0
0 1:6 2:6 4:12 6:4 10:11 12:4 13:1 14:4 15:4 16:2 20:4 22:1 23:1 24:1 253:0
0 4:6 5:3 9:7 10:3 11:5 15:6 16:3 20:9 23:2 28:4 35:2 88:1 114:4 253:0
0 1:6 2:6 4:1 5:2 9:6 11:6 23:1 24:1 26:2 27:1 28:1 29:2 35:1 39:2 40:1 253:0
0 4:24 10:35 12:5 13:2 15:3 16:1 20:6 22:1 23:3 24:4 34:2 62:2 93:1 107:1 109:1 112:5 253:0
0 1:16 2:15 3:2 4:6 5:6 6:6 7:2 8:1 9:5 10:1 11:4 25:2 40:1 72:1 88:1 89:1 114:2 253:0
0 1:6 2:6 4:3 5:2 6:2 9:2 10:2 11:1 14:2 15:2 20:2 253:0
0 1:12 2:12 4:7 5:4 9:7 10:8 11:9 29:4 62:2 92:4 93:1 253:0
0 1:9 2:8 4:2 5:2 6:1 9:4 11:6 14:2 15:2 16:1 20:1 42:2 43:1 44:2 102:1 253:0
0 1:6 2:6 4:12 5:2 6:2 9:4 10:13 11:6 15:3 16:1 20:6 22:1 23:1 24:1 253:0
0 1:12 2:12 4:4 5:1 6:4 9:1 10:2 14:2 15:2 16:1 20:1 26:2 27:1 38:1 40:1 72:2 253:0
0 1:6 2:6 4:3 5:1 6:2 9:4 10:1 11:1 23:1 24:1 28:1 29:6 34:7 74:1 97:1 112:9 113:5 115:1 116:1 117:1 253:0
0 1:6 2:6 4:16 5:9 6:2 9:8 10:15 11:7 12:2 13:1 23:2 24:3 28:1 29:2 41:1 253:0
0 1:6 2:6 4:7 5:4 6:2 9:2 10:6 11:1 15:2 16:1 20:2 22:1 23:1 24:1 253:0
0 4:9 5:2 9:3 10:11 11:1 15:4 16:2 20:2 22:2 23:2 28:2 32:2 253:0
0 1:6 2:6 4:6 5:3 6:2 9:3 10:6 11:3 15:2 16:1 20:2 23:1 24:1 28:1 253:0
0 1:12 2:12 4:4 5:1 6:6 9:2 10:1 11:1 15:2 16:1 20:3 253:0
0 1:18 2:18 4:7 5:4 6:6 9:6 10:4 11:6 15:2 16:1 20:4 23:1 24:1 28:1 253:0
0 1:12 2:12 4:10 5:4 6:6 9:4 10:8 11:6 15:4 16:2 20:8 62:2 92:2 93:1 107:1 253:0
0 1:12 2:12 4:9 5:5 6:4 9:4 10:7 11:6 15:3 16:1 20:5 22:1 23:1 24:1 253:0
0 62:1 63:2 64:2 65:1 68:2 84:1 85:1 86:2 126:1 215:2 253:0
0 1:12 2:12 4:6 5:3 6:4 9:3 10:3 11:3 12:4 13:1 253:0
0 1:4 2:3 3:2 4:3 5:1 6:2 7:2 8:1 9:2 10:1 11:1 12:2 13:1 253:0
0 4:4 5:1 9:4 10:1 11:6 15:4 16:2 20:5 22:2 23:2 24:2 253:0
0 1:6 2:6 4:8 5:6 6:2 9:6 10:2 11:6 12:6 13:3 14:4 15:5 16:2 20:2 23:1 24:2 41:1 253:0
0 1:12 2:12 4:7 5:5 6:4 9:6 10:3 11:6 15:2 16:1 20:3 29:2 59:1 60:1 61:2 62:1 63:2 64:2 65:1 92:2 253:0
0 1:12 2:12 4:4 5:3 6:4 9:4 10:1 11:3 26:2 27:1 29:2 33:2 34:4 38:1 40:1 72:2 112:3 113:3 253:0
0 4:20 10:23 12:6 13:3 15:3 20:5 22:1 23:1 24:1 253:0
0 1:12 2:12 4:4 5:3 6:4 9:6 11:4 23:1 24:1 28:1 29:6 253:0
0 1:6 2:6 4:6 5:5 6:2 9:8 10:2 11:7 12:2 13:1 15:1 20:1 22:1 23:2 24:3 29:4 33:2 34:1 41:1 62:2 93:1 100:2 106:1 107:1 253:0
0 1:8 2:9 4:5 6:2 10:1 12:5 13:2 14:4 15:4 16:2 17:3 18:1 19:2 20:2 22:1 23:1 24:1 253:0
0 1:12 2:12 4:9 5:5 6:4 9:8 10:10 11:7 23:2 24:1 28:3 29:2 33:2 34:1 35:1 253:0
0 1:6 2:6 4:13 5:4 6:2 9:4 10:13 11:3 15:2 16:1 20:2 22:1 23:2 24:2 28:1 32:1 33:2 34:1 253:0
0 1:12 2:12 4:6 6:4 7:2 10:2 12:2 13:1 14:6 15:7 16:3 20:5 23:1 24:2 25:2 37:1 54:1 90:1 91:1 94:2 95:3 144:2 253:0
0 4:9 10:5 15:8 16:4 20:10 22:4 23:4 24:4 253:0
0 1:6 2:6 4:16 5:3 6:4 9:3 10:18 11:3 12:2 13:1 14:4 15:11 16:3 20:15 22:1 23:1 24:1 55:1 253:0
0 1:12 2:12 4:6 5:7 6:2 9:10 10:3 11:8 23:2 24:1 26:2 27:1 28:3 29:4 33:2 34:1 35:1 253:0
0 1:4 2:3 3:2 4:5 5:1 6:3 7:2 8:1 9:1 10:3 23:1 24:1 25:1 28:1 253:0
0 1:8 2:7 3:1 4:1 6:1 7:1 9:2 25:1 29:3 42:1 44:1 58:1 59:1 60:1 61:2 62:1 63:2 64:2 65:1 92:2 142:1 174:1 175:1 176:1 253:0
0 1:6 2:6 4:3 5:4 6:2 9:4 10:1 11:3 38:1 39:1 40:1 62:2 93:1 100:1 107:1 149:1 253:0
0 1:6 2:6 4:5 5:4 6:2 9:2 10:3 11:1 67:2 68:1 253:0
0 4:4 5:1 9:1 10:4 23:1 24:1 28:1 253:0
0 1:9 2:10 3:3 7:2 8:1 14:2 15:1 67:4 68:2 253:0
0 1:4 2:3 3:2 4:4 5:3 6:2 7:2 8:1 9:3 11:3 15:2 16:1 20:2 22:1 23:1 24:1 253:0
0 1:12 2:12 4:14 5:10 6:4 9:10 10:11 11:9 23:1 24:1 28:1 29:4 253:0
0 1:12 2:12 4:8 5:7 6:2 9:11 10:3 11:10 23:2 24:1 28:3 29:4 35:1 62:2 92:2 93:1 107:1 253:0
0 13:2 15:2 16:1 54:2 253:0
0 1:12 2:12 4:10 5:3 6:4 9:3 10:10 11:3 14:6 15:6 16:3 20:1 253:0
0 1:12 2:12 4:8 5:7 6:4 9:8 10:3 11:7 12:3 13:1 23:1 24:1 26:2 27:1 28:1 62:2 92:4 93:1 253:0
0 1:12 2:12 4:7 5:3 6:4 9:2 10:6 11:1 15:1 20:2 253:0
0 1:6 2:6 4:22 6:2 9:3 10:29 11:3 12:9 13:3 15:2 20:4 23:1 24:2 29:2 253:0
0 4:3 5:2 7:6 8:3 9:4 10:3 11:1 36:6 37:3 253:0
0 1:8 2:9 4:5 5:2 6:1 9:2 10:5 11:1 14:2 15:2 16:1 17:3 18:1 19:2 21:1 30:2 31:1 253:0
0 1:6 2:6 4:13 6:2 10:8 14:2 15:9 16:4 20:8 253:0
0 1:6 2:6 4:14 5:3 6:4 9:5 10:16 11:3 12:6 13:2 14:2 15:4 20:5 23:3 24:5 28:1 29:2 54:2 74:1 97:1 115:1 116:1 117:1 253:0
0 1:6 2:6 4:5 5:4 6:2 9:9 10:2 11:7 12:2 13:1 15:1 20:1 22:1 23:2 24:3 29:4 33:2 34:1 41:1 88:1 114:3 253:0
0 4:9 15:8 16:4 20:8 46:6 47:6 150:6 253:0
0 4:13 5:3 9:2 10:16 11:1 15:2 16:1 20:3 22:1 23:2 24:2 28:1 253:0
0 1:6 2:6 4:3 5:1 6:2 9:4 10:1 11:2 15:2 16:1 20:1 22:1 23:2 24:1 26:4 27:2 28:2 32:1 35:1 39:2 40:1 253:0
0 1:13 2:16 3:4 4:6 5:8 7:2 8:1 9:6 10:3 11:4 66:2 253:0
0 1:12 2:12 4:7 5:8 9:9 10:4 11:9 23:1 24:1 26:2 27:1 28:1 29:4 62:2 92:4 93:1 253:0
0 1:12 2:12 4:3 5:1 6:4 9:2 11:1 12:2 13:1 14:4 15:2 16:1 33:2 34:1 62:2 93:1 106:1 107:2 253:0
0 1:7 2:5 3:2 4:2 5:3 6:1 7:2 8:1 9:6 11:6 26:1 27:1 29:1 36:1 42:2 43:1 44:2 102:1 183:1 253:0
0 1:6 2:6 4:2 5:2 9:5 10:1 11:4 23:1 24:1 28:1 29:2 30:2 31:1 253:0
0 1:6 2:6 4:14 5:3 6:2 9:3 10:19 11:3 14:2 15:1 253:0
0 1:6 2:6 4:10 5:13 6:2 9:8 10:7 11:7 14:2 15:5 16:2 20:1 22:1 23:3 24:3 28:2 35:1 55:1 62:2 93:1 100:1 107:4 253:0
0 4:4 10:4 34:12 112:16 113:10 253:0
0 4:26 10:36 12:5 13:2 15:4 16:1 20:7 22:1 23:3 24:5 34:1 112:2 253:0
0 4:21 10:21 12:9 13:4 15:4 16:1 20:6 22:1 23:2 24:3 253:0
0 1:12 2:12 4:8 5:7 9:9 10:3 11:9 15:4 16:2 20:4 29:4 55:1 62:2 92:4 93:1 253:0
0 1:7 2:6 3:2 4:4 5:1 6:2 7:4 8:2 9:2 10:3 23:1 24:1 28:1 29:2 37:1 40:1 66:2 72:2 88:1 89:1 114:1 253:0
0 1:14 2:15 3:3 4:4 5:1 6:5 7:2 8:1 9:2 10:1 14:2 15:3 16:1 20:1 22:1 23:2 24:2 25:1 28:1 29:2 66:2 127:1 128:2 216:1 253:0
0 1:3 2:2 4:5 5:2 6:3 9:3 10:4 11:1 23:2 24:2 28:2 35:1 42:2 43:1 44:2 102:1 253:0
0 1:6 2:6 4:4 6:2 10:1 12:2 13:1 15:5 16:1 20:4 22:1 23:1 24:1 50:1 51:3 52:3 53:3 54:1 82:3 253:0
0 1:8 2:9 3:3 4:5 5:2 6:3 7:2 8:1 9:3 10:4 11:3 25:1 33:4 34:2 253:0
0 1:12 2:12 4:5 5:6 6:4 9:6 10:2 11:6 62:4 92:6 93:2 253:0
0 1:6 2:6 4:7 5:3 6:2 9:4 10:9 11:6 23:1 24:2 253:0
0 1:12 2:12 4:4 6:6 14:2 15:6 16:3 20:5 22:3 23:3 24:3 55:1 253:0
0 1:9 2:9 3:5 4:7 5:5 6:3 7:6 8:3 9:10 10:5 11:9 23:2 24:1 25:1 28:3 29:1 35:1 36:1 37:1 66:2 253:0
0 4:10 5:7 9:6 10:10 11:6 15:2 16:1 20:3 253:0
0 1:9 2:8 3:2 4:6 5:1 6:4 7:2 8:1 9:1 10:5 14:2 15:3 16:1 20:1 22:1 23:2 24:3 25:2 66:2 253:0
0 1:12 2:12 4:2 5:1 6:4 9:2 11:1 14:2 15:2 20:1 22:1 23:2 24:2 28:1 29:2 253:0
0 1:6 2:6 4:5 5:4 6:2 9:2 10:4 11:1 15:2 20:3 253:0
0 1:9 2:10 3:3 4:9 5:4 6:2 7:2 8:1 9:3 10:10 11:3 12:1 13:1 15:1 20:2 253:0
0 1:12 2:12 4:8 5:4 6:6 9:5 10:4 11:4 15:1 20:3 23:1 24:2 29:2 62:2 92:4 93:1 253:0
0 1:7 2:6 3:2 4:5 6:7 7:4 8:2 10:3 25:1 37:1 253:0
0 1:6 2:6 4:2 5:1 9:2 10:1 11:1 14:2 15:1 23:1 24:1 28:1 29:2 253:0
0 4:2 10:1 15:2 20:3 27:1 74:4 75:2 76:1 116:2 117:4 159:2 253:0
0 1:12 2:12 4:5 5:2 6:6 9:6 10:2 11:6 12:3 13:1 29:2 253:0
0 1:6 2:6 4:3 5:2 6:4 9:1 10:1 14:2 15:3 20:2 22:1 23:1 24:1 253:0
0 1:13 2:12 3:1 4:9 5:1 6:8 7:2 8:1 9:2 10:5 11:1 17:1 18:1 19:2 21:2 23:3 24:3 25:2 28:2 62:2 93:1 100:1 107:2 109:1 136:1 253:0
0 1:13 2:12 3:1 4:5 5:2 6:7 7:2 8:1 9:5 10:1 11:2 14:4 15:2 16:1 25:1 35:1 36:1 38:1 39:2 40:1 42:1 43:1 44:2 45:1 142:1 253:0
0 1:6 2:6 4:13 6:4 10:19 12:3 13:1 23:1 24:2 253:0
0 1:4 2:3 3:2 4:7 5:1 6:5 7:2 8:1 9:1 10:6 25:1 98:1 99:1 152:1 253:0
0 1:12 2:12 4:5 5:3 6:4 9:3 10:2 11:3 12:2 13:1 15:1 20:2 253:0
0 1:6 2:6 4:1 6:2 14:4 15:4 16:2 62:2 63:1 64:2 92:2 93:1 253:0
0 1:6 2:6 4:15 6:4 10:22 14:2 15:3 20:4 253:0
0 1:6 2:6 4:2 5:1 6:2 7:2 9:2 11:1 15:1 20:1 22:1 23:2 24:2 25:2 28:1 29:2 37:1 94:2 95:3 144:2 253:0
0 1:14 2:13 3:2 4:1 6:1 7:2 9:3 25:1 29:5 36:1 58:1 59:1 60:1 61:2 62:1 63:2 64:2 65:1 66:1 92:2 94:2 95:1 96:1 253:0
0 1:3 2:2 4:2 5:1 6:1 9:2 15:1 17:2 18:1 19:2 20:1 21:1 29:1 38:1 40:1 72:1 73:1 74:2 97:2 115:1 116:1 117:1 153:1 253:0
0 1:3 2:1 3:3 4:5 5:1 6:4 7:6 8:3 9:2 10:1 15:1 20:1 25:3 29:1 36:1 37:1 42:1 43:1 44:2 45:1 50:1 51:3 52:3 53:3 66:2 82:1 102:1 253:0
0 4:2 10:1 62:2 63:4 64:4 65:2 84:2 85:2 86:4 107:2 253:0
0 4:29 10:41 12:5 13:2 15:6 16:2 20:10 23:2 24:4 55:1 253:0
0 4:6 5:5 9:4 10:4 11:3 23:2 24:2 28:2 253:0
0 1:6 2:6 4:3 5:2 6:2 9:2 11:1 12:2 13:1 23:1 24:1 28:1 30:2 31:1 253:0
0 4:4 10:3 15:6 16:1 20:9 55:1 253:0
0 1:6 2:6 4:4 5:3 9:2 10:3 11:1 14:4 15:3 16:1 20:1 22:1 23:2 24:2 28:1 253:0
0 1:1 3:1 7:2 8:1 9:1 36:1 42:1 43:1 44:2 45:1 142:1 253:0
0 1:6 2:6 4:3 5:2 6:4 9:4 10:1 11:3 30:2 31:1 35:1 39:2 40:1 253:0
0 4:8 5:4 9:7 10:4 11:9 15:2 16:1 20:1 22:1 23:1 28:1 32:1 253:0
0 4:9 10:12 15:2 20:2 22:1 23:1 24:1 253:0
0 1:12 2:12 4:7 5:3 6:4 9:4 10:5 11:6 15:3 16:1 20:5 22:1 23:1 24:1 253:0
0 1:6 2:6 4:1 6:2 15:1 20:1 22:1 23:1 24:1 57:1 59:1 60:1 61:2 62:1 63:2 64:2 65:1 92:2 134:1 253:0
0 4:26 10:39 15:6 16:2 20:12 23:2 24:4 34:1 55:1 112:3 253:0
0 4:20 10:27 12:7 13:2 15:1 20:3 23:1 24:2 27:1 118:1 119:1 217:1 253:0
0 1:12 2:12 4:7 5:2 6:6 9:3 10:7 11:3 14:4 15:3 16:1 20:3 253:0
0 1:12 2:12 4:7 5:2 6:4 9:2 10:3 11:1 12:2 13:1 14:4 15:5 16:2 20:4 23:1 24:2 54:1 253:0
0 1:1 3:2 4:6 5:2 6:1 7:4 8:2 9:2 10:4 11:1 15:1 20:1 22:1 23:2 24:2 25:1 28:1 37:1 253:0
0 4:19 5:12 9:6 10:20 11:6 15:4 16:2 20:6 22:2 23:2 24:2 253:0
0 1:6 2:6 4:10 5:4 6:6 9:3 10:7 11:3 15:2 16:1 20:3 22:1 23:1 24:1 253:0
0 4:8 5:7 9:5 10:5 11:4 12:1 13:1 15:1 20:1 22:1 23:3 24:3 28:2 62:4 93:2 100:1 107:6 253:0
0 1:10 2:9 3:2 4:2 6:4 7:2 8:1 9:2 11:1 15:1 20:1 22:1 23:1 24:1 29:4 34:3 112:3 113:3 253:0
0 1:12 2:12 4:3 6:8 15:1 20:1 22:1 23:1 24:1 34:3 112:3 113:3 253:0
0 1:6 2:6 4:5 5:3 6:4 9:2 10:2 11:1 34:3 112:3 113:3 253:0
0 1:20 2:24 3:3 4:2 5:1 6:3 7:2 8:1 9:3 25:1 29:4 66:2 253:0
0 1:12 2:12 4:9 5:2 6:4 9:4 10:8 11:2 12:2 13:1 23:2 24:2 28:2 29:2 41:1 88:1 114:4 253:0
0 1:10 2:9 3:2 4:7 5:4 6:6 7:2 8:1 9:4 10:3 11:3 23:1 24:1 28:1 29:2 253:0
0 1:12 2:12 4:12 6:4 10:17 14:8 15:8 16:4 20:4 23:1 24:2 253:0
0 1:3 2:2 4:5 5:4 6:1 9:6 10:1 11:4 15:4 16:2 17:2 18:1 19:2 20:4 21:1 22:1 23:1 28:1 29:1 32:1 40:1 72:1 74:1 88:1 89:1 97:1 114:2 115:1 116:1 117:1 153:1 253:0
0 1:6 2:6 4:1 5:1 6:2 9:3 11:1 23:1 24:1 26:2 27:1 28:1 59:1 60:1 61:2 62:1 63:2 64:2 65:1 88:1 92:2 114:3 253:0
0 4:24 5:3 9:1 10:33 12:5 13:2 15:5 16:2 20:7 22:1 23:3 24:5 34:1 38:1 40:1 72:1 112:3 141:1 253:0
0 1:8 2:9 4:3 6:1 14:4 15:5 16:2 20:3 22:1 23:1 24:1 42:3 43:1 44:2 102:1 253:0
0 1:1 3:1 4:4 6:2 7:2 8:1 10:2 25:1 27:1 42:1 43:1 44:2 45:1 76:1 102:1 253:0
0 4:27 10:44 12:5 13:2 15:2 16:1 20:4 22:1 23:2 24:3 253:0
0 1:6 2:6 4:3 5:2 6:4 9:3 10:1 11:3 14:4 15:5 16:2 20:1 32:1 55:1 253:0
0 1:6 2:6 4:8 5:3 6:4 9:3 10:8 11:3 23:1 24:1 26:2 27:1 28:1 253:0
0 4:18 10:12 12:8 13:4 15:7 16:2 20:9 22:2 23:2 24:2 54:2 253:0
0 1:6 2:6 4:3 10:1 14:4 15:6 16:2 20:5 253:0
0 1:12 2:12 4:1 5:1 9:3 11:1 14:4 15:4 16:2 20:2 23:2 24:1 26:4 27:2 28:3 35:1 55:1 253:0
0 1:4 2:3 3:2 4:6 5:3 6:5 7:2 8:1 9:2 10:2 11:1 14:2 15:3 20:2 22:1 23:1 24:1 25:1 62:2 93:1 100:1 107:2 253:0
0 1:14 2:15 3:3 4:5 5:2 6:5 7:2 8:1 9:2 10:1 14:4 15:4 16:2 20:1 22:1 23:1 24:1 25:1 66:2 253:0
0 4:16 5:5 9:4 10:13 11:2 15:1 20:1 22:1 23:1 24:1 253:0
0 1:1 3:1 4:8 5:3 6:2 7:2 8:1 9:3 10:6 11:1 25:1 36:1 39:1 40:1 42:1 43:1 44:2 45:1 72:1 88:1 89:1 102:1 114:2 142:1 253:0
0 1:12 2:12 4:3 5:4 6:4 9:7 10:1 11:6 23:2 24:1 26:2 27:1 28:3 29:2 35:1 253:0
0 1:16 2:17 3:4 4:1 6:4 7:6 8:3 9:1 26:1 27:1 29:1 36:1 37:1 66:2 132:1 253:0
0 4:24 10:38 12:5 13:2 15:2 20:3 23:2 24:4 34:1 112:3 253:0
0 1:6 2:6 4:13 5:2 6:2 9:3 10:7 11:1 12:6 13:2 15:8 16:4 20:8 22:2 23:2 24:2 29:2 41:2 74:1 97:1 115:1 116:1 117:1 253:0
0 1:1 3:2 4:9 5:4 6:1 7:4 8:2 9:7 10:5 11:6 23:3 24:3 25:1 28:3 29:1 35:1 36:1 37:1 66:2 253:0
0 4:16 5:13 9:11 10:14 11:10 15:2 16:1 20:1 22:1 23:2 28:3 32:1 35:1 253:0
0 1:6 2:6 4:6 6:4 10:4 14:2 15:3 20:3 22:1 23:1 24:1 253:0
0 1:4 2:3 3:2 4:4 5:3 6:2 7:2 8:1 9:3 10:2 11:3 14:1 15:2 16:1 23:2 24:2 28:2 103:1 253:0
0 4:28 10:39 12:3 13:1 15:5 16:2 20:8 22:2 23:4 24:6 253:0
0 1:12 2:12 4:2 5:1 6:2 9:2 11:1 14:2 15:3 16:1 20:2 22:1 23:2 24:2 26:4 27:2 28:1 29:2 253:0
0 1:1 3:2 4:5 7:6 8:2 9:2 10:2 12:3 13:1 25:4 29:1 36:1 37:1 43:1 44:2 45:2 66:2 74:1 94:2 95:1 97:1 102:2 115:1 116:1 117:1 253:0
0 1:13 2:14 3:3 4:3 5:2 6:2 7:2 9:4 10:1 11:3 62:2 66:1 92:1 93:1 94:2 95:1 96:1 107:1 110:1 253:0
0 1:12 2:12 4:5 5:7 6:2 9:9 10:1 11:7 14:6 15:6 16:3 23:1 24:1 28:1 29:4 38:1 39:1 40:1 72:1 253:0
0 1:7 2:6 3:2 4:9 5:7 6:3 7:4 8:2 9:13 10:6 11:12 15:2 16:1 20:3 22:1 23:4 24:2 25:1 28:5 29:1 32:1 35:1 36:1 37:1 66:2 253:0
0 1:6 2:6 4:14 6:2 10:12 12:6 13:3 14:2 15:7 16:2 20:8 22:1 23:1 24:1 34:3 112:3 113:3 253:0
0 1:17 2:20 4:4 5:6 9:8 10:1 11:7 29:4 33:2 34:1 58:2 59:1 60:1 61:2 62:1 63:2 64:2 65:1 92:2 253:0
0 4:2 5:2 9:4 11:2 12:2 13:1 15:1 20:1 22:1 23:3 24:2 28:3 35:1 41:1 253:0
0 1:13 2:12 3:5 4:3 6:4 7:5 8:4 10:1 15:1 20:1 22:1 23:1 24:1 25:1 26:2 27:1 37:1 42:1 43:1 44:2 45:2 102:1 253:0
0 1:6 2:6 4:1 5:1 6:2 9:3 23:1 24:1 28:1 29:4 74:2 97:2 115:2 116:2 117:2 253:0
0 1:16 2:21 3:6 4:2 6:4 7:4 8:2 9:1 14:2 15:1 66:2 253:0
0 1:6 2:6 4:5 5:2 6:2 9:3 10:3 11:1 15:2 16:1 20:2 22:1 23:1 24:1 29:2 253:0
0 1:10 2:10 3:5 4:6 5:5 6:4 7:6 8:3 9:7 10:2 11:6 14:2 15:2 16:1 29:1 36:1 37:1 58:1 59:1 60:1 61:2 62:1 63:2 64:2 65:1 107:1 253:0
0 1:6 2:6 4:6 5:2 6:2 9:3 10:5 11:1 14:2 15:2 16:1 20:1 23:2 24:2 28:2 29:2 40:1 72:2 88:1 89:1 114:1 253:0
0 4:21 10:31 12:3 13:1 15:1 20:3 23:1 24:2 253:0
0 1:14 2:15 4:9 5:3 6:4 9:3 10:6 11:3 14:8 15:8 16:3 17:3 18:1 19:2 20:3 253:0
0 4:1 5:1 9:4 11:2 12:1 13:1 23:1 24:1 28:1 35:1 41:1 98:1 99:2 253:0
0 1:18 2:18 4:5 5:7 6:6 9:6 10:1 11:6 14:6 15:6 16:3 33:4 34:2 253:0
0 4:14 5:3 9:3 10:16 11:3 12:3 13:1 15:2 16:1 20:2 253:0
0 1:3 2:2 4:4 5:3 9:4 10:5 11:2 26:1 27:1 29:2 35:1 39:2 40:1 42:2 43:1 44:2 59:1 60:1 61:2 62:1 63:2 64:2 65:1 92:1 121:1 183:1 199:1 253:0
0 1:6 2:6 4:4 5:5 6:2 9:6 11:4 23:1 24:1 26:2 27:1 28:1 29:2 253:0
0 1:4 2:3 3:2 4:3 5:3 6:2 7:2 8:1 9:3 11:3 15:2 16:1 20:2 23:1 24:1 28:1 253:0
0 4:2 5:1 9:2 11:1 15:3 16:1 20:2 22:1 23:1 27:3 28:1 32:2 76:3 104:3 253:0
0 4:8 5:2 9:8 10:6 11:12 15:2 16:1 20:2 253:0
0 1:12 2:12 4:5 5:2 6:4 9:2 10:2 11:1 14:2 15:4 16:1 20:4 22:1 23:1 24:1 253:0
0 1:12 2:12 4:10 5:3 6:8 9:4 10:6 11:3 12:3 13:1 23:1 24:1 28:1 253:0
0 4:7 5:5 9:8 10:5 11:12 15:2 16:1 20:2 22:1 23:1 24:1 253:0
0 4:13 5:2 9:4 10:10 11:6 15:2 16:1 20:2 22:1 23:1 24:1 253:0
0 1:6 2:6 4:11 5:3 6:2 9:3 10:11 11:3 15:1 20:2 253:0
0 1:6 2:6 4:7 6:4 10:5 15:1 20:1 22:1 23:3 24:4 62:2 93:1 107:2 109:1 253:0
0 1:6 2:6 4:4 5:2 6:4 9:2 10:1 11:1 12:1 13:1 14:4 15:4 16:1 20:1 23:1 24:1 28:1 253:0
0 1:15 2:17 3:2 4:4 5:2 6:4 7:2 8:1 9:3 10:3 11:1 15:1 20:1 23:1 24:1 28:1 29:2 253:0
0 1:2 2:1 3:1 4:5 5:4 6:1 7:1 9:2 10:4 11:1 15:1 17:1 19:1 20:2 21:1 30:1 31:1 69:1 70:1 71:1 165:1 253:0
0 1:6 2:6 4:2 5:1 9:2 11:1 14:2 15:2 16:1 20:1 22:1 23:2 24:2 28:1 29:2 253:0
0 1:6 2:6 4:15 10:14 12:4 13:2 14:2 15:9 16:3 20:12 22:1 23:1 24:1 55:1 253:0
0 4:4 10:3 23:2 24:2 253:0
0 1:7 2:6 3:1 4:2 5:2 6:2 7:2 8:1 9:4 11:2 12:2 13:1 15:1 20:1 23:1 24:1 28:1 36:1 41:1 42:1 43:1 44:2 45:1 54:1 58:2 59:1 60:1 61:2 62:1 63:2 64:2 65:1 92:2 142:1 253:0
0 1:8 2:7 3:2 4:8 5:1 6:4 7:4 8:2 9:2 10:5 11:1 14:2 15:1 25:2 36:2 37:1 253:0
0 4:4 9:4 10:2 12:4 13:2 35:2 39:2 40:3 72:4 88:2 89:2 98:1 99:2 114:2 253:0
0 1:4 2:3 3:2 4:12 5:5 7:2 8:1 9:5 10:15 11:2 15:2 16:1 20:2 23:3 24:3 28:3 29:1 36:1 74:1 97:1 253:0
0 4:23 10:35 12:3 13:1 15:3 20:6 23:2 24:4 34:1 112:3 253:0
0 1:12 2:12 4:5 5:6 6:2 9:7 11:5 14:4 15:4 16:2 20:1 23:2 24:2 26:4 27:2 28:2 29:2 253:0
0 1:6 2:4 3:4 4:1 6:2 7:6 8:3 37:1 62:2 93:1 107:1 110:2 253:0
0 1:2 2:1 3:2 4:17 5:8 7:4 8:2 9:9 10:20 11:9 12:4 13:2 23:2 24:2 28:2 36:2 37:1 253:0
0 1:7 2:5 3:5 4:6 5:5 6:2 7:6 8:3 9:5 10:3 11:2 17:2 18:1 19:2 21:2 36:2 37:2 66:2 253:0
0 1:12 2:12 4:5 5:3 6:4 9:3 10:4 11:3 14:6 15:8 16:4 20:2 253:0
0 1:6 2:6 4:4 5:3 6:2 9:4 10:2 11:1 26:4 27:2 35:1 38:1 39:3 40:3 72:3 88:1 89:1 114:2 253:0
0 1:12 2:13 3:4 4:7 5:4 6:7 7:4 8:1 9:5 10:1 11:4 15:2 16:1 20:2 25:1 29:2 36:2 90:1 91:1 94:2 95:1 253:0
0 1:8 2:7 3:1 4:3 6:6 7:1 9:1 15:1 20:1 22:1 23:1 24:1 25:1 29:2 34:3 42:1 44:1 102:1 112:3 113:3 174:1 175:1 176:1 253:0
0 1:6 2:6 4:8 5:2 6:2 9:3 10:9 11:3 12:2 13:1 15:2 16:1 20:2 22:1 23:1 24:1 253:0
0 4:10 5:2 9:2 10:9 11:1 15:1 20:2 23:1 24:1 28:1 253:0
0 1:12 2:12 4:1 6:2 9:8 11:7 14:4 15:2 16:1 23:3 28:6 29:2 34:3 35:3 62:2 92:2 93:1 113:3 180:3 253:0
0 1:14 2:15 3:3 4:4 5:3 6:4 7:2 8:1 9:2 10:2 11:1 15:1 20:1 22:1 23:2 24:2 26:2 27:1 28:1 253:0
0 1:4 2:3 3:2 4:1 6:1 7:2 8:1 15:1 20:1 25:1 253:0
0 1:9 2:10 3:3 4:1 7:2 8:1 14:2 15:2 16:1 20:1 62:1 63:2 64:2 65:1 84:1 85:1 86:2 92:2 253:0
0 1:6 2:6 4:4 6:4 10:3 14:2 15:1 26:2 27:1 253:0
0 1:15 2:16 3:7 4:2 5:1 6:1 7:6 8:3 9:5 11:4 23:1 24:1 25:1 28:1 29:6 37:1 253:0
0 1:10 2:9 3:2 4:3 6:6 7:4 8:1 10:1 14:3 15:2 16:1 23:1 24:2 25:2 26:2 27:1 37:1 94:2 95:3 103:1 144:2 253:0
0 4:6 5:3 9:2 10:4 11:1 15:6 16:1 20:9 23:1 24:1 28:1 55:1 253:0
0 1:7 2:6 3:2 4:3 5:2 6:1 7:4 8:2 9:6 10:1 11:6 23:2 24:1 25:1 26:2 27:1 28:3 29:3 35:1 36:1 37:1 253:0
0 1:6 2:6 4:11 5:2 9:2 10:8 11:1 14:2 15:3 16:1 20:3 62:2 92:2 93:1 107:2 253:0
0 4:21 10:32 12:5 13:2 15:3 20:6 22:1 23:2 24:3 253:0
0 4:22 10:33 12:5 13:2 15:2 20:5 23:2 24:4 253:0
0 1:8 2:9 3:3 4:5 5:2 6:3 7:2 8:1 9:3 10:4 11:3 25:1 253:0
0 4:3 5:2 9:2 10:1 11:1 15:1 20:1 22:1 23:2 24:2 28:1 62:1 107:2 253:0
0 1:6 2:6 4:3 5:3 6:2 9:3 11:3 14:4 15:5 16:2 20:2 98:1 99:1 152:1 253:0
0 1:12 2:12 4:6 5:4 6:6 9:5 10:1 11:4 15:1 20:1 23:1 24:2 29:2 62:2 92:4 93:1 253:0
0 1:7 2:6 3:1 4:3 6:2 7:2 8:1 10:3 14:2 15:3 16:1 20:1 22:1 23:1 24:1 42:1 43:1 44:2 45:1 103:1 155:1 253:0
0 1:9 2:10 3:3 4:10 5:4 6:2 7:2 8:1 9:3 10:10 11:3 12:1 13:1 14:2 15:6 16:3 20:3 22:2 23:1 55:1 253:0
0 1:6 2:6 4:1 5:2 9:6 11:6 23:1 24:1 28:1 29:2 35:1 39:2 40:1 253:0
0 4:5 5:1 9:3 10:5 11:1 23:2 24:1 28:3 31:1 35:1 124:3 253:0
0 1:12 2:12 4:8 5:5 6:6 9:9 10:8 11:9 14:2 15:2 16:1 22:1 23:1 28:1 29:2 32:1 35:1 253:0
0 1:12 2:12 4:7 5:8 6:4 9:10 10:2 11:9 12:3 13:1 23:1 24:1 28:1 33:4 34:2 35:1 38:1 39:2 40:1 41:1 253:0
0 1:10 2:8 3:4 4:7 6:1 7:6 8:2 9:2 10:8 14:2 15:2 16:1 20:2 25:1 26:2 27:1 29:1 33:2 34:1 36:1 37:1 58:1 59:1 60:1 61:2 62:1 63:2 64:2 65:1 66:1 92:2 94:2 95:1 96:1 253:0
0 1:6 2:6 4:11 5:3 6:4 9:2 10:14 11:1 12:2 13:1 14:4 15:4 16:1 20:4 253:0
0 1:6 2:6 4:10 5:8 6:4 9:5 10:5 11:4 14:2 15:2 16:1 20:1 23:1 24:1 28:1 253:0
0 4:23 10:36 12:3 13:1 15:1 20:3 23:1 24:2 253:0
0 1:6 2:6 4:5 5:4 6:4 9:5 11:4 15:2 16:1 20:1 22:1 23:2 24:2 28:1 29:2 253:0
0 4:3 5:1 9:3 10:1 11:3 12:2 13:2 15:1 20:1 22:1 23:2 24:3 41:2 68:2 167:2 184:2 253:0
0 1:12 2:12 4:7 5:5 6:8 9:6 10:1 11:6 12:5 13:2 26:2 27:1 41:1 90:1 91:1 253:0
0 1:6 2:6 4:10 5:7 6:2 9:6 10:7 11:4 15:2 20:2 22:2 23:3 24:3 28:1 29:2 253:0
0 1:6 2:6 4:1 5:1 6:2 9:5 11:4 33:2 34:1 35:1 39:1 40:1 72:1 88:1 89:1 98:1 99:2 114:2 253:0
0 1:12 2:12 4:3 5:2 6:4 9:5 11:3 23:1 24:1 28:1 29:6 34:1 38:1 39:1 40:1 72:1 112:1 253:0
0 1:9 2:10 3:3 4:7 6:5 7:2 8:1 9:2 10:3 11:1 12:2 13:1 14:2 15:4 16:1 20:3 22:2 23:3 24:4 25:1 29:2 54:1 253:0
0 1:6 2:6 4:2 5:2 6:2 9:6 11:6 15:1 20:1 22:1 23:1 24:1 35:1 62:2 93:1 98:1 99:1 100:2 101:1 253:0
0 1:6 2:6 4:4 5:2 9:3 10:2 11:3 14:2 15:4 16:1 20:5 23:1 24:1 26:2 27:1 28:1 29:2 253:0
0 1:6 2:6 4:8 5:6 6:2 9:6 10:5 11:4 12:3 13:1 23:1 24:1 28:1 41:1 88:1 114:3 253:0
0 1:6 2:6 4:3 5:3 9:3 10:1 11:1 14:2 15:2 16:1 20:2 26:4 27:2 38:1 39:1 40:1 72:1 253:0
0 1:6 2:6 4:7 5:4 9:2 10:5 11:1 14:4 15:7 16:3 20:7 253:0
0 1:6 2:6 4:3 5:2 6:4 9:3 10:1 11:3 14:6 15:6 16:3 55:1 253:0
0 1:12 2:12 4:7 5:3 6:4 9:3 10:3 11:3 14:2 15:2 16:1 20:1 23:1 24:2 253:0
0 1:7 2:6 3:2 4:9 5:6 6:2 7:4 8:2 9:4 10:9 11:3 15:3 16:1 20:4 22:1 23:1 24:1 37:1 66:2 253:0
0 4:6 5:4 9:2 10:5 11:1 15:1 20:1 22:1 23:1 24:1 62:2 63:1 64:2 93:1 107:4 253:0
0 1:6 2:6 4:5 5:4 6:2 9:2 10:4 11:1 15:1 20:1 26:2 27:1 253:0
0 1:7 2:6 3:6 4:2 5:1 6:2 7:4 8:2 9:1 23:1 24:1 25:2 28:1 74:2 88:1 105:4 114:1 253:0
0 1:14 2:15 3:3 4:4 5:1 6:5 7:2 8:1 9:1 10:1 15:1 20:1 22:1 23:2 24:2 25:1 28:1 66:2 253:0
0 4:14 10:16 15:2 20:4 22:1 23:1 24:1 253:0
0 1:6 2:6 4:8 5:5 6:2 9:6 10:7 11:6 15:2 16:1 20:3 22:1 23:1 24:1 26:2 27:1 253:0
0 1:2 2:1 3:5 4:3 5:1 7:8 8:4 9:2 10:3 15:2 20:2 36:2 37:3 66:2 253:0
0 1:12 2:12 3:4 4:1 6:2 7:4 8:2 25:2 37:1 62:1 63:2 64:2 65:1 84:1 85:1 86:2 92:2 253:0
0 4:3 5:2 9:4 10:1 11:1 12:2 13:1 23:2 24:2 28:2 38:1 39:1 40:1 41:1 88:1 90:1 91:1 114:3 253:0
0 1:6 2:6 4:12 5:5 6:2 9:6 10:9 11:6 15:2 16:1 20:2 22:1 23:2 24:2 28:1 32:1 33:2 34:1 253:0
0 1:17 2:20 4:5 5:2 9:7 10:6 11:4 15:2 16:1 20:2 22:1 23:2 24:2 28:1 29:6 58:1 59:1 60:1 61:2 62:1 63:2 64:2 65:1 92:2 253:0
0 1:6 2:6 4:16 10:18 14:2 15:3 16:1 20:2 23:2 24:4 253:0
0 1:5 2:3 3:4 4:4 5:3 6:1 7:6 8:3 9:6 10:2 11:3 25:1 29:1 35:1 36:1 37:1 39:2 40:1 253:0
0 1:7 2:6 3:1 4:3 5:2 6:2 7:1 9:2 10:2 17:1 19:1 29:1 66:1 70:1 71:1 94:1 95:1 96:1 153:1 169:1 253:0
0 1:12 2:12 4:6 6:6 10:4 12:2 13:1 15:1 20:1 22:1 23:1 24:1 253:0
0 4:16 5:7 9:5 10:15 11:4 15:1 20:1 22:1 23:4 24:4 28:2 62:2 93:1 107:2 109:1 253:0
0 1:6 2:6 4:5 5:3 9:3 10:2 11:3 14:4 15:4 16:2 20:2 253:0
0 1:12 2:12 4:6 5:2 6:4 9:5 10:7 11:4 29:4 253:0
0 1:6 2:6 3:4 4:2 7:4 8:2 9:2 10:1 11:1 14:2 15:4 16:2 20:1 22:1 23:1 28:1 32:1 36:2 37:1 253:0
0 1:12 2:12 4:3 5:2 6:4 9:3 10:1 11:1 23:1 24:1 26:4 27:2 28:1 29:2 38:1 40:1 72:2 253:0
0 1:4 2:3 3:2 4:7 5:5 6:2 7:2 8:1 9:7 10:4 11:6 12:2 13:1 15:1 20:1 22:1 23:2 24:3 29:2 33:2 34:1 36:2 41:1 253:0
0 1:12 2:12 4:2 5:1 6:4 9:2 11:1 14:2 15:1 23:1 24:1 28:1 29:2 34:3 112:3 113:3 253:0
0 1:6 2:6 4:7 5:6 6:2 9:8 10:3 11:5 15:2 16:1 20:2 22:1 23:3 24:2 28:3 29:2 35:1 39:1 40:1 72:1 253:0
0 1:6 2:6 4:7 5:3 6:2 9:2 10:5 11:1 15:2 16:1 20:3 253:0
0 1:12 2:12 4:8 5:4 6:6 9:3 10:7 11:3 14:4 15:4 16:2 26:2 27:1 253:0
0 1:6 2:6 4:4 5:3 6:2 9:2 10:2 11:1 23:2 24:3 26:2 27:4 28:1 76:3 104:1 253:0
0 1:12 2:12 3:4 4:3 5:2 7:2 9:2 10:1 11:1 14:6 15:7 16:3 20:4 94:2 95:2 144:1 253:0
0 1:6 2:6 4:15 5:4 6:4 9:3 10:21 11:3 14:2 15:1 253:0
0 1:6 2:6 4:5 6:2 10:6 15:2 20:6 26:2 27:1 253:0
0 4:3 5:2 9:4 10:2 11:1 23:1 24:1 28:1 35:1 39:2 40:1 253:0
0 1:13 2:12 3:1 4:3 5:2 6:2 7:1 9:5 10:2 11:2 17:1 19:1 23:1 28:2 29:3 35:1 66:1 70:1 71:1 94:1 95:1 96:1 153:1 169:1 253:0
0 1:15 2:14 3:4 4:8 5:7 6:3 7:4 8:2 9:7 10:2 11:6 12:2 13:1 17:2 18:1 19:2 21:1 23:1 24:2 25:2 37:1 66:2 253:0
0 1:12 2:12 3:2 4:1 6:3 7:2 8:1 17:3 18:1 19:2 21:1 253:0
0 1:6 2:6 4:9 5:8 6:2 9:6 10:5 11:6 12:2 13:1 23:1 24:1 28:1 253:0
0 1:6 2:6 4:8 6:2 10:5 12:3 13:1 14:4 15:7 16:2 20:8 22:1 23:1 24:1 62:2 93:1 107:2 108:1 253:0
0 1:6 2:6 4:7 5:4 6:4 9:5 10:2 11:4 15:2 20:2 22:2 23:3 24:3 28:1 29:2 67:2 68:1 253:0
0 1:4 2:3 3:2 4:1 6:2 7:2 8:1 15:2 16:1 20:1 22:1 23:1 24:1 253:0
0 1:12 2:12 4:6 5:4 6:8 9:10 10:2 11:8 14:4 15:2 23:2 24:4 29:4 74:2 97:6 253:0
0 1:9 2:8 3:2 4:5 5:2 6:3 7:2 9:3 10:3 11:3 15:1 20:2 25:1 26:4 27:2 29:1 36:1 94:2 95:1 253:0
0 1:12 2:12 4:3 5:2 9:6 10:3 11:6 14:4 15:4 16:2 26:2 27:1 29:4 55:1 253:0
0 4:3 5:2 9:3 10:1 11:3 12:1 13:1 15:2 16:1 20:2 22:1 23:2 24:1 28:2 32:1 253:0
0 1:6 2:6 4:3 5:2 6:2 9:2 10:1 11:1 15:1 20:1 22:1 23:2 24:2 28:1 253:0
0 1:8 2:7 3:2 4:5 5:5 6:4 7:4 8:2 9:8 10:3 11:5 23:2 24:1 28:3 29:3 34:3 35:1 36:3 37:1 112:3 113:3 253:0
0 1:7 2:6 3:1 4:3 5:1 7:2 8:1 9:3 10:2 11:1 15:1 20:1 22:1 23:2 24:2 28:1 29:2 36:1 42:1 43:1 44:2 45:1 58:1 59:1 60:1 61:2 62:1 63:2 64:2 65:1 92:2 142:1 253:0
0 1:10 2:9 3:2 4:8 6:5 7:2 8:1 10:7 15:2 16:1 20:2 22:1 23:1 24:1 25:1 253:0
0 1:3 2:2 4:5 5:4 6:1 9:6 10:1 11:4 15:4 16:2 17:2 18:1 19:2 20:4 21:1 22:1 23:1 28:1 29:1 32:1 40:1 72:1 74:1 88:1 89:1 97:1 114:2 115:1 116:1 117:1 153:1 253:0
0 1:6 2:6 4:7 5:1 6:2 9:2 10:6 23:1 24:1 28:1 29:2 40:2 72:4 88:2 89:2 90:2 91:2 114:2 253:0
0 1:8 2:7 3:2 4:8 5:6 6:5 7:2 9:4 10:5 11:3 15:2 16:1 20:4 25:1 33:4 34:5 59:1 60:1 61:2 62:1 63:2 64:2 65:1 94:2 95:1 112:3 113:3 122:1 162:1 253:0
0 4:11 5:2 9:2 10:12 11:1 12:5 13:2 23:1 24:1 28:1 41:1 74:1 97:2 253:0
0 1:17 2:20 4:5 5:3 6:2 9:3 10:6 11:3 14:4 15:5 16:2 20:2 22:1 23:2 24:2 28:1 33:2 34:1 253:0
0 4:6 5:4 9:6 10:3 11:6 12:1 13:1 15:1 20:1 22:1 23:2 24:2 28:1 41:1 62:2 93:1 100:2 106:1 107:1 253:0
0 1:6 2:6 4:9 6:4 10:9 14:2 15:2 16:1 20:1 22:1 23:1 24:1 26:2 27:1 253:0
0 4:3 5:2 9:1 10:2 15:2 20:3 22:1 23:1 24:1 253:0
0 4:16 10:16 15:3 16:1 20:5 22:1 23:1 24:1 253:0
0 1:2 3:3 4:2 6:2 7:6 8:3 9:3 25:4 35:1 36:1 37:1 38:1 39:2 40:1 42:1 43:1 44:2 45:1 142:1 253:0
0 1:6 2:6 4:2 5:1 6:2 9:1 12:2 13:1 14:6 15:6 16:3 23:1 24:1 28:1 253:0
0 1:12 2:12 4:11 5:3 6:4 9:3 10:12 11:3 23:1 24:2 253:0
0 1:12 2:12 3:4 4:2 5:1 6:2 7:4 8:2 9:1 25:2 26:2 27:1 37:1 66:2 253:0
0 4:10 5:8 9:8 10:8 11:7 23:2 24:1 27:2 28:3 35:1 76:2 253:0
0 4:23 10:37 15:1 20:2 23:1 24:2 253:0
0 4:18 5:4 9:3 10:11 11:1 12:8 13:4 15:3 20:4 22:2 23:3 24:3 28:1 62:2 93:1 107:3 253:0
0 1:4 2:3 3:2 4:1 6:2 7:2 8:1 15:1 20:1 22:1 23:1 24:1 253:0
0 1:6 2:6 4:9 6:4 10:9 15:1 20:1 22:1 23:1 24:1 26:2 27:2 76:2 253:0
0 1:1 3:2 4:22 6:2 7:2 10:35 15:1 20:3 25:2 69:2 70:2 197:1 253:0
0 1:12 2:12 4:11 5:6 6:4 9:5 10:9 11:2 14:2 15:3 16:1 20:3 23:1 24:1 26:2 27:1 28:1 29:2 40:1 72:2 88:1 89:1 90:1 91:1 114:1 253:0
0 1:6 2:6 4:5 5:1 6:2 7:2 9:2 10:2 11:1 15:2 16:1 20:2 22:1 23:2 24:2 25:2 28:1 29:2 37:1 94:2 95:3 144:2 253:0
0 1:18 2:18 4:10 5:8 6:6 9:8 10:9 11:7 14:2 15:2 16:1 23:2 24:1 28:3 35:1 253:0
0 1:6 2:6 4:4 7:2 9:1 10:6 25:1 36:1 43:1 44:2 45:2 58:1 59:1 60:1 61:2 62:1 63:2 64:2 65:1 92:2 94:2 95:1 102:1 142:1 253:0
0 1:12 2:12 3:4 4:5 5:5 6:2 7:4 8:2 9:5 10:3 11:2 33:2 34:1 36:2 37:1 66:2 253:0
0 1:9 2:6 3:7 4:5 5:2 6:5 7:8 8:3 9:4 10:1 11:1 23:1 24:1 25:4 28:1 29:1 36:1 37:1 40:1 42:2 43:1 44:2 45:1 66:2 72:1 88:1 89:1 94:2 95:1 102:1 114:2 253:0
0 1:12 2:12 4:6 5:2 6:2 9:5 10:8 11:4 23:1 24:1 28:1 29:4 253:0
0 1:6 2:6 4:1 6:2 14:2 15:2 20:1 30:2 31:1 74:1 75:1 253:0
0 1:12 2:12 4:9 5:7 6:2 9:9 10:8 11:9 23:2 24:3 28:1 29:2 33:2 34:1 35:1 253:0
0 4:23 10:34 12:5 13:2 15:3 16:1 20:6 22:1 23:3 24:4 34:1 62:2 93:1 107:1 109:1 112:3 253:0
0 1:12 2:12 4:3 6:4 10:1 14:4 15:6 16:3 20:3 22:1 23:1 24:1 26:4 27:2 55:1 253:0
0 4:5 5:2 9:5 10:3 11:3 12:1 13:1 15:4 16:1 20:6 23:1 28:2 32:1 34:1 35:1 38:1 39:1 40:1 41:1 68:1 72:1 112:2 167:1 184:1 253:0
0 1:12 2:12 4:7 5:2 6:4 9:4 10:6 11:6 15:3 16:1 20:6 22:1 23:1 24:1 253:0
0 4:25 10:35 12:5 13:2 15:4 16:1 20:7 22:1 23:3 24:5 34:2 112:5 253:0
0 1:6 2:6 4:11 5:6 6:2 9:8 10:10 11:7 12:2 13:1 14:2 15:3 16:1 20:1 22:1 23:2 24:3 29:4 33:2 34:1 41:1 253:0
0 4:5 5:2 9:4 10:6 11:2 23:1 27:1 28:2 35:1 76:1 88:1 114:2 116:1 188:1 253:0
0 1:3 2:2 4:3 5:1 6:1 9:3 10:1 11:1 15:2 16:1 17:2 18:1 19:2 20:2 21:1 22:1 23:1 28:1 29:1 32:1 40:1 62:2 72:1 74:1 88:1 89:1 93:1 97:1 107:1 114:2 115:1 116:1 117:1 153:1 253:0
0 4:5 10:5 23:1 24:2 253:0
0 4:14 5:8 9:7 10:13 11:5 12:2 13:1 15:3 20:5 22:1 23:2 24:2 28:1 41:1 62:2 93:1 106:1 107:3 253:0
0 4:4 5:1 9:6 10:3 11:3 15:5 16:1 20:8 23:1 28:2 32:1 35:2 38:2 39:3 40:2 253:0
0 1:6 2:6 3:2 7:2 8:1 9:1 17:2 18:1 19:2 26:2 27:1 36:1 136:1 153:1 253:0
0 4:7 5:2 9:4 10:10 11:2 23:3 24:2 28:4 35:1 253:0
0 1:6 2:6 4:10 6:6 10:11 15:1 20:1 22:1 23:1 24:1 253:0
0 1:6 2:6 14:2 15:1 62:1 63:2 64:2 65:1 84:1 85:1 86:2 92:2 253:0
0 1:12 2:12 3:2 4:2 5:3 6:2 7:2 8:1 9:6 11:6 17:2 18:1 19:2 36:1 136:1 153:1 253:0
0 1:7 2:8 3:3 4:5 5:4 7:4 8:2 9:6 10:3 11:6 14:4 15:7 16:3 20:4 22:1 23:1 28:1 29:1 32:1 36:1 37:1 253:0
0 1:12 2:12 4:5 5:2 6:4 9:4 10:3 11:6 15:3 16:1 20:5 22:1 23:1 24:1 253:0
0 1:12 2:12 4:5 5:5 9:7 10:3 11:9 23:1 24:1 28:1 29:4 62:2 92:4 93:1 253:0
0 1:9 2:8 3:2 4:5 5:1 6:5 7:2 9:2 10:2 15:1 20:1 22:1 23:1 24:1 25:1 29:1 36:1 66:1 94:2 95:1 96:1 253:0
0 1:11 2:14 4:2 14:8 15:8 16:4 20:2 22:2 23:2 24:2 26:2 27:1 253:0
0 1:12 2:12 4:5 5:2 6:6 9:3 10:4 11:3 14:4 15:4 16:2 253:0
0 1:6 2:6 4:8 6:2 10:8 15:3 16:1 20:5 22:1 23:1 24:1 26:2 27:1 253:0
0 1:12 2:12 4:8 5:3 6:4 9:3 10:6 11:3 14:4 15:4 16:2 20:2 23:1 24:2 253:0
0 1:12 2:12 4:4 6:4 9:1 10:3 14:4 15:2 16:1 23:1 24:2 29:2 33:4 34:2 58:1 59:1 60:1 61:2 62:1 63:2 64:2 65:1 253:0
0 4:4 10:2 15:4 16:1 20:5 23:1 24:2 55:1 253:0
0 1:15 2:16 3:3 4:1 6:2 7:2 8:1 9:1 14:8 15:8 16:4 29:2 38:1 40:1 72:1 253:0
0 1:6 2:6 4:16 5:4 6:4 9:3 10:21 11:3 14:2 15:1 23:1 24:2 253:0
0 4:16 10:14 15:7 16:2 20:11 22:1 23:1 24:1 253:0
0 1:12 2:12 4:4 5:2 6:4 9:3 10:2 11:1 23:1 28:2 35:1 58:1 59:1 60:1 61:2 62:1 63:2 64:2 65:1 92:2 253:0
0 4:1 31:1 34:4 112:4 113:3 124:1 209:1 253:0
0 1:6 2:6 4:5 5:2 6:4 9:6 10:3 11:4 23:2 24:1 28:3 29:2 35:1 40:1 72:2 88:1 89:1 114:1 253:0
0 1:6 2:6 4:6 5:5 6:2 9:7 10:4 11:5 15:1 20:2 23:1 28:2 29:4 35:1 253:0
0 1:6 2:6 4:5 5:7 6:2 9:7 10:1 11:3 14:2 15:2 16:1 23:1 24:1 26:2 27:1 28:1 29:2 88:1 114:4 253:0
0 1:6 2:6 4:1 5:1 6:2 9:1 23:1 24:1 26:2 27:1 28:1 58:1 59:1 60:1 62:1 92:2 253:0
0 1:10 2:9 3:2 4:5 5:3 6:3 7:2 8:1 9:2 10:2 11:1 12:3 13:1 23:1 24:1 25:1 28:1 30:1 31:1 90:1 91:1 165:1 253:0
0 1:14 2:18 3:8 4:5 5:4 6:2 7:6 8:3 9:5 10:1 11:4 29:1 36:1 253:0
0 1:4 2:3 3:2 4:4 5:3 6:2 7:2 8:1 9:6 10:2 11:6 14:1 15:2 16:1 20:2 98:1 99:1 103:1 152:1 253:0
0 4:2 5:2 9:2 10:1 11:1 15:1 20:1 22:1 23:1 24:1 62:2 93:1 100:1 107:1 253:0
0 1:6 2:6 4:6 5:4 6:4 9:5 10:5 11:4 29:2 253:0
0 1:7 2:8 3:3 4:1 5:2 7:2 9:6 11:2 29:2 35:1 38:1 39:2 40:1 66:1 94:2 95:1 96:1 253:0
0 27:2 34:2 104:1 113:1 181:4 253:0
0 1:6 2:6 4:8 5:5 6:2 9:4 10:5 11:3 14:2 15:2 16:1 23:1 24:1 28:1 253:0
0 1:6 2:6 4:12 5:3 6:6 9:3 10:10 11:3 15:2 16:1 20:2 22:1 23:1 24:1 253:0
0 1:6 2:6 4:6 5:2 6:2 9:3 10:3 11:1 15:2 16:1 20:2 22:1 23:1 24:1 29:2 253:0
0 1:6 2:6 4:13 5:3 6:2 9:4 10:14 11:6 15:3 16:1 20:5 22:1 23:1 24:1 253:0
0 1:9 2:8 4:6 5:2 6:3 9:4 10:5 11:6 15:3 16:1 20:6 22:1 23:1 24:1 42:2 43:1 44:2 102:1 253:0
0 1:6 2:6 4:7 5:3 6:2 9:4 10:2 11:3 14:2 15:4 16:2 20:3 22:1 23:1 24:1 29:2 253:0
0 4:9 10:6 15:11 16:5 20:20 22:1 23:1 24:1 55:3 253:0
0 1:6 2:6 4:1 6:2 14:2 15:1 30:6 31:3 253:0
0 1:9 2:10 3:3 4:6 5:5 7:2 8:1 9:5 10:3 11:4 14:2 15:2 16:1 29:2 253:0
0 1:6 2:6 4:1 6:2 57:2 59:1 60:1 61:2 62:1 63:2 64:2 65:1 92:2 134:2 135:1 253:0
0 1:6 2:6 4:2 5:2 6:2 9:2 11:1 14:4 15:3 20:1 23:1 24:1 28:1 253:0
0 1:6 2:6 4:12 5:4 6:4 9:3 10:15 11:3 14:2 15:3 16:1 20:2 253:0
0 1:3 2:2 4:4 5:2 6:1 9:2 10:1 11:1 15:1 20:1 22:1 23:3 24:3 28:1 42:2 43:1 44:2 62:2 93:1 102:1 107:3 109:1 253:0
0 1:6 2:6 4:5 5:3 6:6 9:3 10:1 11:1 14:4 15:4 16:2 38:1 39:1 40:1 72:1 253:0
0 1:9 2:8 4:10 5:7 6:4 9:5 10:8 11:4 14:2 15:3 16:1 20:2 22:2 23:4 24:4 28:2 42:2 43:1 44:2 62:2 93:1 100:1 107:4 253:0
0 1:9 2:8 4:4 5:5 6:1 9:9 10:1 11:6 15:2 16:1 20:2 22:1 23:2 24:1 26:1 27:1 28:2 29:4 32:1 39:1 40:1 42:2 43:1 44:2 88:1 89:1 102:1 114:2 183:1 253:0
0 1:9 2:8 4:8 5:4 6:3 9:4 10:6 11:2 15:1 20:2 23:1 24:1 28:1 29:2 30:4 31:2 42:2 43:1 44:2 102:1 253:0
0 4:10 10:17 15:2 20:2 22:2 23:2 24:2 253:0
0 4:1 5:1 9:4 11:6 15:1 20:1 74:2 75:1 116:1 117:2 159:1 253:0
0 1:8 2:9 3:3 4:12 5:5 6:3 7:2 8:1 9:6 10:11 11:6 12:2 13:1 14:2 15:8 16:4 20:4 22:1 23:1 24:1 25:1 54:2 55:1 253:0
0 1:4 2:3 3:2 4:5 5:1 6:1 7:2 8:1 9:2 10:5 11:1 25:1 62:2 93:1 98:1 99:1 107:4 152:1 253:0
0 1:3 2:2 4:11 5:5 6:1 9:3 10:11 11:3 42:2 43:1 44:2 102:1 253:0
0 4:1 5:1 9:3 11:3 15:1 20:1 253:0
0 1:1 3:2 4:1 5:1 6:1 7:4 8:2 9:6 11:6 23:2 24:1 25:1 28:3 29:1 31:1 35:1 36:1 37:1 165:2 253:0
0 1:12 2:12 4:2 5:2 6:2 9:7 11:6 23:2 24:1 28:3 29:6 35:1 74:1 97:1 115:1 116:1 117:1 253:0
0 1:12 2:12 4:3 5:1 6:4 9:3 10:1 11:3 14:2 15:2 16:1 20:1 253:0
0 1:12 2:12 4:4 5:3 6:2 9:6 10:2 11:6 23:1 24:1 28:1 29:2 62:2 92:2 93:1 107:2 253:0
0 1:6 2:6 4:2 5:2 9:4 11:2 12:1 13:1 26:2 27:1 29:2 35:1 58:2 59:2 60:2 61:4 62:4 63:4 64:4 65:2 92:4 93:1 107:2 253:0
0 4:24 10:34 12:5 13:2 15:5 16:2 20:11 23:2 24:4 34:1 55:1 112:3 253:0
0 1:6 2:6 4:15 5:4 6:4 9:3 10:17 11:3 12:3 13:1 14:4 15:4 16:1 20:5 23:1 24:2 253:0
0 1:6 2:6 4:6 5:4 6:2 9:2 10:4 11:1 14:2 15:3 16:1 20:3 90:1 91:1 253:0
0 1:12 2:12 4:6 5:1 6:8 9:3 10:1 11:3 12:5 13:2 118:2 119:1 253:0
0 4:7 10:7 15:1 20:1 63:2 65:1 83:1 84:2 86:4 137:1 253:0
0 4:8 5:5 9:6 10:3 11:6 12:1 13:1 15:2 16:1 20:2 22:1 23:2 24:2 28:1 41:1 62:2 93:1 100:2 106:1 107:1 253:0
0 1:15 2:16 3:3 4:4 5:3 6:2 7:2 8:1 9:5 10:2 11:4 14:2 15:1 26:2 27:1 29:4 253:0
0 1:6 2:6 4:8 5:4 6:2 9:3 10:4 11:3 14:2 15:8 16:2 20:10 22:1 23:1 24:1 253:0
0 1:6 2:6 4:2 6:4 9:6 11:2 23:1 28:2 29:2 35:2 38:1 39:2 40:1 253:0
0 1:9 2:11 3:2 4:5 5:4 6:1 7:2 8:1 9:6 10:2 11:4 12:1 13:1 14:1 15:2 16:1 20:2 23:2 24:1 25:1 28:3 35:1 39:1 40:1 72:1 88:1 89:1 103:1 114:1 253:0
0 1:12 2:12 4:2 5:2 6:2 9:4 11:3 23:1 24:1 26:2 27:1 28:1 29:4 38:1 39:1 40:1 72:1 253:0
0 4:25 10:36 12:3 13:1 15:4 16:2 20:9 23:2 24:4 55:1 253:0
0 1:12 2:12 4:5 5:6 6:2 9:8 10:1 11:7 12:2 13:1 14:2 15:4 16:2 20:1 22:1 23:1 28:1 29:2 32:1 33:2 34:1 41:1 54:1 253:0
0 1:12 2:12 4:5 6:8 10:2 15:1 20:1 22:1 23:2 24:3 62:2 92:2 93:1 107:1 253:0
0 1:12 2:12 4:5 5:2 9:3 10:3 11:3 14:4 15:6 16:3 20:5 22:1 23:1 24:1 26:4 27:2 55:1 253:0
0 1:1 3:2 4:4 5:2 6:1 7:4 8:2 9:5 10:2 11:1 15:2 20:3 23:1 24:1 25:1 28:1 29:1 35:1 36:1 37:1 38:1 39:2 40:1 66:2 253:0
0 1:12 2:12 4:14 6:4 10:18 12:3 13:1 14:10 15:11 16:3 20:9 23:2 24:4 55:1 253:0
0 1:6 2:6 4:10 6:2 10:12 12:3 13:1 15:1 20:1 22:1 23:1 24:1 253:0
0 1:12 2:12 4:7 5:3 6:2 9:2 10:3 11:1 14:4 15:7 16:3 20:6 33:2 34:1 253:0
0 1:2 2:1 3:2 4:2 5:4 7:4 8:2 9:8 11:7 26:1 27:1 29:1 36:3 37:1 62:2 92:2 93:1 132:1 253:0
0 1:6 2:6 4:9 5:3 9:2 10:7 11:1 14:4 15:7 16:3 20:6 253:0
0 1:12 2:12 4:4 6:8 9:5 11:3 29:4 38:2 39:2 40:2 253:0
0 1:8 2:7 3:2 4:6 5:3 6:7 7:4 8:2 9:5 10:2 11:4 15:1 20:2 23:1 24:1 25:1 28:1 30:4 31:2 37:1 40:1 72:2 73:1 74:1 75:1 253:0
0 4:26 10:36 12:5 13:2 15:3 16:1 20:6 22:1 23:3 24:5 253:0
0 1:6 2:6 4:7 5:6 9:6 10:5 11:6 23:1 24:1 28:1 29:2 253:0
0 1:12 2:12 4:6 5:3 6:6 9:5 10:4 11:4 29:4 253:0
0 1:6 2:6 4:5 5:3 6:2 9:3 10:1 11:3 15:4 16:2 20:4 22:1 23:2 24:3 253:0
0 1:13 2:14 3:3 4:5 5:3 6:4 7:2 9:4 10:1 11:2 14:2 15:3 16:1 20:3 29:2 94:2 95:1 253:0
0 4:24 5:5 9:6 10:33 11:6 12:5 13:2 15:2 20:5 23:2 24:4 253:0
0 1:12 2:12 4:5 5:1 6:4 9:1 10:3 12:4 13:1 253:0
0 1:1 3:2 4:9 5:10 6:1 7:4 8:2 9:10 10:5 11:6 12:2 13:1 23:5 24:4 25:1 28:6 35:1 37:1 41:1 253:0
0 1:9 2:8 4:4 6:6 10:3 15:1 20:1 22:1 23:1 24:1 42:2 43:1 44:2 253:0
0 1:6 2:6 4:14 10:14 12:4 13:2 14:2 15:5 16:1 20:6 22:1 23:1 24:1 34:2 112:4 113:1 253:0
0 4:9 5:2 9:2 10:13 11:1 12:2 13:1 23:2 24:2 28:2 253:0
0 1:9 2:8 4:1 6:2 9:2 11:1 15:1 20:1 22:1 23:1 24:1 26:4 27:2 29:4 42:2 43:1 44:2 253:0
0 1:6 2:6 4:10 5:4 6:2 9:3 10:6 11:3 15:4 16:2 20:4 22:1 23:1 24:1 253:0
0 1:12 2:12 3:2 4:5 6:5 7:2 8:1 10:4 17:3 18:1 19:2 21:1 23:1 24:2 253:0
0 1:9 2:8 4:4 5:2 6:3 9:6 10:1 11:6 12:2 13:1 29:4 42:2 43:1 44:2 102:1 253:0
0 1:2 2:1 3:3 4:1 6:1 7:7 8:3 9:2 25:1 36:4 37:3 94:3 95:1 253:0
0 1:6 2:6 4:10 5:9 6:4 9:8 10:4 11:5 12:3 13:1 15:1 20:1 22:1 23:3 24:3 28:2 38:1 39:1 40:1 41:1 62:2 72:1 93:1 100:1 107:2 253:0
0 1:12 2:12 4:3 5:1 6:4 9:3 11:1 15:2 16:1 20:2 22:1 23:2 24:2 28:1 29:4 34:3 112:3 113:3 253:0
0 1:6 2:6 4:5 5:3 6:2 9:3 10:1 11:3 14:2 15:4 16:2 20:3 23:1 24:1 28:1 40:1 72:2 73:1 74:1 253:0
0 1:12 2:12 4:8 5:1 6:12 9:3 10:1 11:3 15:4 16:2 20:5 253:0
0 1:6 2:6 4:5 5:3 6:2 9:2 10:1 11:1 14:2 15:3 16:1 20:2 22:2 23:4 24:4 28:1 62:2 93:1 107:2 109:1 253:0
0 1:6 2:6 4:12 5:3 6:2 9:3 10:11 11:3 15:6 16:3 20:7 22:1 23:1 24:1 253:0
0 1:12 2:12 4:11 5:4 6:6 9:2 10:8 11:1 14:4 15:5 16:2 20:3 23:1 24:2 253:0
0 1:6 2:6 4:12 5:6 6:2 7:4 8:1 9:7 10:10 11:6 25:4 29:2 34:3 37:2 66:2 94:2 95:1 112:3 113:3 253:0
0 1:12 2:12 4:7 5:2 6:4 9:2 10:3 11:1 12:3 13:1 14:6 15:7 16:3 20:3 90:1 91:1 253:0
0 4:26 10:36 12:4 13:1 15:6 16:3 20:10 22:1 23:2 24:3 55:1 253:0
0 1:10 2:9 3:2 4:4 5:2 6:4 7:2 8:1 9:3 10:3 11:3 15:1 20:1 23:1 24:1 28:1 253:0
0 1:14 2:15 3:3 4:7 5:3 7:2 8:1 9:3 10:6 11:3 14:4 15:5 16:2 20:4 253:0
0 1:6 2:6 4:6 5:3 6:4 9:3 10:1 11:3 12:3 13:1 14:6 15:6 16:1 20:3 22:1 23:1 24:1 253:0
0 1:10 2:9 3:2 4:2 6:4 7:2 8:1 9:2 10:1 29:2 33:2 34:1 36:2 253:0
0 4:7 5:2 9:2 10:8 11:1 15:3 20:4 22:1 23:2 24:2 28:1 50:1 51:3 52:3 53:3 82:1 253:0
0 4:6 5:3 9:2 10:7 11:1 15:1 20:1 22:1 23:2 24:2 28:1 62:2 107:2 139:2 140:1 253:0
0 1:12 2:12 4:2 5:2 6:4 9:3 11:3 253:0
0 1:8 2:7 3:2 4:5 5:7 6:2 7:2 9:12 11:10 23:2 24:2 25:2 28:2 29:6 66:1 94:2 95:1 96:1 253:0
0 1:7 2:6 3:2 4:5 5:2 6:1 7:4 8:2 9:7 10:3 11:6 14:2 15:4 16:2 20:5 22:1 23:3 24:2 25:1 26:2 27:1 28:3 29:1 35:1 36:1 37:1 66:2 253:0
0 1:12 2:12 4:4 5:2 6:6 9:5 10:1 11:4 23:3 24:4 28:2 29:4 253:0
0 1:10 2:9 3:2 4:13 5:3 6:6 7:2 8:1 9:3 10:16 11:3 14:4 15:6 16:3 20:5 22:1 23:1 24:1 253:0
0 1:12 2:12 4:11 5:5 6:4 9:6 10:9 11:4 23:2 24:2 28:2 29:2 40:1 72:2 88:1 89:1 114:1 253:0
0 1:12 2:12 4:7 5:7 6:4 9:6 10:1 11:6 15:5 16:2 20:5 26:2 27:1 253:0
0 1:6 2:6 4:5 5:3 6:2 9:3 10:3 11:1 15:1 20:2 29:2 253:0
0 1:6 2:6 4:4 6:2 10:1 12:3 13:1 14:6 15:6 16:2 20:3 22:2 23:2 24:2 253:0
0 1:12 2:12 4:4 5:2 9:2 10:1 11:1 12:5 13:2 14:6 15:4 16:2 20:1 23:1 24:1 26:2 27:1 28:1 41:1 74:1 97:2 253:0
0 1:7 2:6 3:1 4:2 5:1 7:2 8:1 9:3 11:1 12:2 13:1 15:1 20:1 22:1 23:2 24:2 28:1 29:2 36:1 42:1 43:1 44:2 45:1 58:1 59:1 60:1 61:2 62:1 63:2 64:2 65:1 92:2 142:1 253:0
0 1:12 2:12 3:2 4:4 6:2 7:2 8:1 10:3 14:2 15:3 16:1 20:2 22:1 23:1 24:1 42:2 43:1 44:2 45:1 62:2 93:1 107:3 110:1 121:1 253:0
0 1:6 2:6 4:9 5:7 9:5 10:8 11:4 14:2 15:3 16:1 20:4 22:1 23:3 24:3 28:2 62:2 93:1 100:1 107:4 253:0
0 1:12 2:12 4:9 5:3 6:4 9:3 10:9 11:3 15:3 16:1 20:4 22:1 23:1 24:1 253:0
0 1:6 2:6 4:6 5:3 9:3 10:3 11:3 14:2 15:6 16:3 20:7 22:1 23:1 24:1 253:0
0 4:10 10:12 15:1 20:2 253:0
0 1:12 2:12 3:3 4:2 6:4 7:2 8:1 9:1 15:1 17:2 18:1 19:2 20:1 21:1 22:1 23:1 24:1 25:1 29:1 74:2 97:1 105:2 115:1 116:1 117:1 153:1 253:0
0 1:12 2:12 4:6 5:1 6:6 9:2 10:3 11:1 15:1 20:1 22:1 23:1 24:1 29:2 59:1 60:1 61:2 62:1 63:2 64:2 65:1 92:2 253:0
0 1:12 2:12 4:6 5:6 6:2 9:5 10:3 11:4 14:8 15:8 16:4 20:1 23:1 24:1 28:1 253:0
0 1:9 2:10 3:3 4:4 6:5 7:2 8:1 10:1 14:2 15:2 16:1 23:1 24:2 25:1 253:0
0 1:6 2:6 4:3 6:2 12:2 13:1 14:4 15:6 16:2 20:3 22:1 23:1 24:1 253:0
0 1:6 2:6 4:6 5:5 6:4 9:5 11:4 12:1 13:1 14:2 15:2 16:1 20:1 23:1 24:1 28:1 34:3 112:3 113:3 253:0
0 1:16 2:15 3:2 4:5 5:3 6:4 7:2 8:1 9:6 10:2 11:6 14:2 15:4 16:2 20:3 22:1 23:2 24:2 28:1 29:2 62:2 92:2 93:1 107:2 253:0
0 1:12 2:12 4:10 5:3 6:4 9:3 10:10 11:3 15:2 16:1 20:4 22:1 23:1 24:1 253:0
0 1:7 2:8 3:3 4:5 5:5 7:4 8:2 9:7 10:2 11:6 14:4 15:5 16:2 20:2 23:1 24:1 28:1 29:1 36:3 37:1 253:0
0 1:6 2:6 4:8 5:3 6:2 9:3 10:3 11:3 14:2 15:3 16:1 20:3 62:2 63:1 64:2 90:1 91:1 93:1 107:2 253:0
0 1:8 2:7 3:2 4:3 6:4 7:4 8:2 9:2 10:1 14:6 15:8 16:4 20:2 29:1 36:3 37:1 253:0
0 1:7 2:8 3:3 4:7 5:5 7:4 8:2 9:7 10:5 11:5 14:4 15:4 16:2 23:1 28:2 29:1 35:1 36:1 37:1 253:0
0 1:6 2:6 4:5 5:5 6:2 9:5 11:4 12:1 13:1 14:2 15:2 16:1 20:1 23:1 24:1 26:2 27:1 28:1 253:0
0 4:6 5:4 9:3 10:5 11:3 15:1 20:1 22:1 23:2 24:2 28:1 31:1 62:2 93:1 100:1 107:4 124:2 253:0
0 1:12 2:12 3:7 4:2 6:2 7:6 8:3 14:2 15:1 17:2 18:1 19:2 21:1 25:3 37:1 253:0
0 1:12 2:12 4:5 5:2 6:4 9:3 10:4 11:3 14:4 15:4 16:2 253:0
0 1:12 2:12 4:4 5:5 9:6 10:1 11:6 14:10 15:11 16:5 20:3 29:2 253:0
0 1:14 2:17 3:4 4:2 5:2 7:2 8:1 9:6 10:1 11:4 29:4 74:1 97:1 115:1 116:1 117:1 253:0
0 1:6 2:6 4:1 6:2 23:1 24:1 253:0
0 4:2 10:1 15:2 16:1 20:2 22:1 23:1 24:1 253:0
0 1:6 2:6 4:3 5:5 6:2 9:6 10:1 11:4 35:1 38:1 39:2 40:1 253:0
0 1:12 2:12 4:2 6:4 9:2 26:4 27:2 35:1 39:2 40:3 72:2 88:2 89:2 114:2 253:0
0 4:24 10:38 15:1 20:2 23:1 24:2 253:0
0 1:12 2:12 4:4 5:2 6:6 9:3 10:3 11:3 14:2 15:2 16:1 26:4 27:2 253:0
0 4:6 5:4 9:10 10:3 11:7 12:2 13:2 15:5 16:1 20:8 23:2 24:1 28:3 32:1 35:3 38:1 39:2 40:1 41:3 253:0
0 1:6 2:6 4:6 5:2 9:2 10:5 11:1 14:4 15:4 16:2 20:3 253:0
0 1:6 2:6 4:8 5:3 6:2 9:3 10:6 11:3 23:1 24:2 33:2 34:1 253:0
0 1:12 2:12 4:5 5:1 6:8 9:1 10:3 12:2 13:1 23:1 24:1 28:1 253:0
0 1:3 2:1 3:4 4:7 6:4 7:10 8:6 10:4 14:1 15:2 16:1 19:1 21:1 25:5 37:4 69:1 70:1 71:1 103:1 136:1 253:0
0 1:10 2:9 3:2 4:8 6:7 7:2 8:1 10:7 15:1 20:1 22:1 23:1 24:1 25:1 62:2 92:2 93:1 107:1 118:2 119:1 253:0
0 1:6 2:6 4:11 5:1 6:2 9:2 10:13 11:1 14:2 15:2 16:1 20:1 23:2 24:1 28:2 62:2 93:1 100:1 107:2 109:1 253:0
0 4:1 5:1 9:6 11:3 15:1 22:1 23:3 24:1 28:4 32:1 35:1 74:1 75:1 97:2 253:0
0 4:26 10:39 12:5 13:2 15:2 16:1 20:4 22:1 23:3 24:4 62:2 93:1 107:3 109:1 253:0
0 1:6 2:6 4:1 6:2 9:1 12:1 13:1 27:3 29:2 59:2 60:2 61:4 62:2 63:4 64:4 65:2 76:1 92:4 104:1 133:3 253:0
0 4:3 5:1 9:2 10:3 11:1 15:2 16:1 20:3 22:1 23:2 24:1 28:2 32:1 253:0
0 4:3 10:2 15:3 20:4 22:2 23:2 24:2 253:0
0 1:12 2:12 4:1 5:1 9:1 23:1 24:1 28:1 46:1 47:3 48:3 50:1 88:1 114:1 150:3 160:4 253:0
0 4:8 5:3 9:4 10:8 11:2 23:2 24:1 27:3 28:3 35:1 58:2 59:1 60:1 62:1 104:3 218:3 253:0
0 15:1 253:0
0 1:13 2:12 3:2 4:5 5:1 6:6 7:4 8:2 9:1 10:3 15:1 20:2 37:1 66:2 253:0
0 4:2 10:1 15:2 20:2 23:1 24:2 253:0
0 1:6 2:6 4:1 6:2 9:5 11:2 23:1 26:2 27:1 28:2 29:2 35:2 39:2 40:1 90:1 91:1 253:0
0 1:9 2:8 3:2 4:5 5:4 6:5 7:2 9:5 11:4 15:2 16:1 20:2 25:1 29:1 36:1 90:1 91:1 94:2 95:1 253:0
0 1:6 2:6 4:1 5:1 6:2 9:2 11:1 14:2 15:2 16:1 22:1 23:2 24:1 28:2 32:1 253:0
0 1:10 2:9 3:2 4:3 5:1 6:6 7:2 8:1 9:1 14:4 15:5 16:2 20:1 22:1 23:2 24:2 28:1 40:1 72:1 88:1 89:1 114:1 253:0
0 1:8 2:7 3:2 4:2 6:4 7:4 8:2 9:5 10:1 11:3 14:4 15:4 16:2 29:3 36:3 37:1 253:0
0 1:14 2:15 3:3 4:4 5:1 6:5 7:2 8:1 9:1 12:2 13:1 15:1 23:1 24:1 25:1 26:2 27:1 28:1 47:2 48:2 49:2 50:1 51:1 52:1 82:1 90:1 91:1 150:1 160:4 253:0
0 1:18 2:18 4:3 6:6 9:9 10:3 11:9 15:1 20:3 29:6 253:0
0 1:10 2:9 3:2 4:2 5:1 6:2 7:2 8:1 9:2 10:1 11:1 15:1 20:2 29:1 36:1 253:0
0 1:12 2:12 4:4 5:2 6:2 9:3 10:4 11:3 23:2 24:2 26:2 27:1 28:2 29:2 59:1 60:1 61:2 62:1 63:2 64:2 65:1 92:2 253:0
0 4:2 5:1 9:1 10:1 23:1 24:1 28:1 88:1 90:1 91:1 114:1 253:0
0 1:1 3:2 4:5 5:4 7:4 8:2 9:5 10:1 11:3 15:3 16:1 20:4 25:2 29:1 36:1 37:1 66:2 74:1 97:1 115:1 116:1 117:1 253:0
0 1:6 2:6 4:1 6:2 9:1 26:2 27:1 29:2 38:1 40:1 62:4 93:2 149:2 164:2 253:0
0 1:7 2:8 3:1 4:12 5:6 6:1 7:1 9:7 10:8 11:6 12:7 13:3 17:2 19:1 23:1 24:1 25:1 28:1 33:2 34:1 38:1 39:1 40:1 41:2 69:1 70:1 71:1 72:1 253:0
0 1:4 2:3 3:2 4:4 5:2 6:2 7:2 8:1 9:3 10:4 11:3 15:4 16:2 20:2 55:1 253:0
0 1:12 2:12 4:9 5:2 6:4 9:2 10:10 11:1 15:2 16:1 20:3 22:1 23:1 24:1 253:0
0 1:10 2:9 3:6 4:3 6:5 7:6 8:3 14:4 15:4 16:2 25:1 37:1 62:2 93:1 107:1 110:2 253:0
0 4:15 10:11 15:8 16:4 20:10 22:4 23:4 24:4 253:0
0 1:6 2:6 4:2 6:2 9:1 10:1 15:2 16:1 20:2 22:1 23:1 28:1 32:1 118:1 119:1 253:0
0 1:6 2:6 4:6 5:2 9:6 10:4 11:4 15:2 16:1 20:1 22:1 23:2 24:1 28:2 29:4 32:1 38:1 40:1 72:2 253:0
0 1:12 2:12 4:12 5:9 6:4 9:8 10:5 11:7 14:2 15:2 16:1 20:1 23:2 24:2 28:2 253:0
0 1:8 2:9 3:3 4:9 5:8 6:4 7:2 8:1 9:8 10:6 11:7 12:3 13:1 23:2 24:2 28:2 253:0
0 4:10 10:13 15:4 16:1 20:10 253:0
0 1:6 2:6 4:2 5:2 9:4 11:2 12:2 13:1 23:1 24:1 28:1 29:2 41:1 68:1 88:1 114:4 167:1 184:1 253:0
0 1:6 2:6 4:14 5:4 9:2 10:18 11:1 14:2 15:4 16:2 20:3 22:1 23:1 24:1 26:2 27:1 253:0
0 4:4 5:2 9:2 10:2 11:1 15:2 20:4 253:0
0 1:9 2:10 3:3 4:8 6:2 7:2 8:1 10:6 14:6 15:7 16:3 20:4 22:1 23:1 24:1 253:0
0 1:1 3:2 4:5 5:4 7:4 8:2 9:7 10:1 11:4 15:4 16:2 20:4 22:1 23:1 25:2 28:1 29:1 32:1 36:1 37:1 40:1 66:2 72:1 74:1 88:1 89:1 97:1 114:2 115:1 116:1 117:1 253:0
0 1:2 2:1 3:5 4:1 7:8 8:4 9:2 15:3 16:1 20:2 32:1 36:2 37:3 66:2 253:0
0 1:12 2:12 4:5 5:1 6:8 9:2 10:1 11:1 12:2 13:1 15:1 20:1 40:1 72:2 73:1 74:1 75:1 253:0
0 1:12 2:12 3:4 4:10 5:6 6:4 7:4 8:2 9:8 10:7 11:6 23:1 25:2 28:2 29:2 35:1 37:1 66:2 253:0
0 4:10 10:12 15:2 20:4 22:1 23:1 24:1 253:0
0 1:12 2:12 4:11 5:4 6:8 9:3 10:8 11:3 12:2 13:1 15:2 16:1 20:4 253:0
0 1:6 2:6 4:11 5:5 9:6 10:9 11:6 15:3 16:1 20:6 29:2 33:2 34:1 118:1 119:1 253:0
0 4:18 10:20 15:2 20:3 22:1 23:1 24:1 253:0
0 1:6 2:6 4:11 5:2 6:2 9:3 10:8 11:1 12:6 13:2 15:6 16:3 20:6 22:2 23:2 24:2 29:2 41:2 74:1 97:1 115:1 116:1 117:1 253:0
0 1:6 2:6 4:12 5:4 6:8 9:5 10:9 11:4 15:2 16:1 20:1 29:2 253:0
0 4:3 10:3 34:10 112:12 113:9 253:0
0 1:6 2:6 4:2 5:3 9:6 11:4 23:1 24:1 28:1 29:4 38:1 39:1 40:1 72:1 253:0
0 1:6 2:6 4:4 5:2 9:3 10:2 11:3 12:3 13:1 14:2 15:3 16:1 22:1 23:1 26:2 27:1 28:1 32:1 40:1 72:1 73:1 74:1 75:1 253:0
0 1:6 2:6 4:1 6:2 9:3 11:3 29:2 47:1 48:1 49:1 50:1 51:1 52:1 160:2 253:0
0 4:6 10:3 15:6 16:3 20:3 46:3 47:3 150:3 253:0
0 1:13 2:12 3:2 4:3 5:1 6:4 7:4 8:2 9:1 10:3 30:2 31:1 37:1 66:2 253:0
0 1:6 2:6 4:5 10:3 14:2 15:5 16:2 20:5 253:0
0 1:1 3:1 4:2 5:1 6:1 7:2 8:1 9:9 11:4 25:1 35:3 36:1 38:1 39:6 40:3 42:1 43:1 44:2 45:1 59:2 61:4 62:2 63:2 65:1 93:1 107:2 142:1 171:1 199:2 253:0
0 1:6 2:6 4:7 5:4 9:4 10:7 11:3 14:2 15:4 16:2 20:2 22:2 23:2 28:2 32:2 88:1 114:1 253:0
0 1:7 2:6 3:2 4:6 5:1 6:4 7:4 8:2 9:1 10:5 14:2 15:3 16:1 20:2 22:1 23:1 24:1 37:1 66:2 253:0
0 4:6 5:2 9:4 10:5 11:2 23:3 24:2 28:4 31:1 35:1 124:3 253:0
0 1:6 2:6 4:5 5:3 6:2 9:3 10:1 11:3 12:3 13:1 14:6 15:6 16:2 20:3 22:1 23:1 24:1 253:0
0 4:13 10:8 12:10 13:5 15:6 16:1 20:11 22:1 23:1 24:1 50:1 51:3 52:3 53:3 82:1 253:0
0 1:8 2:7 3:2 4:3 5:1 6:3 7:2 9:4 10:1 11:3 15:2 16:1 20:3 25:1 66:1 94:2 95:1 96:1 253:0
0 4:25 10:36 12:5 13:2 15:4 16:1 20:7 22:1 23:3 24:4 34:2 62:2 93:1 107:3 109:1 112:5 253:0
0 4:26 10:37 12:3 13:1 15:6 16:2 20:10 23:2 24:4 34:2 55:1 112:5 253:0
0 1:6 2:6 4:9 5:6 6:4 9:9 10:5 11:9 12:2 13:1 15:1 20:1 22:1 23:2 24:3 29:4 33:2 34:1 41:1 253:0
0 1:6 2:6 4:9 5:4 6:2 9:4 10:9 11:3 15:2 16:1 20:2 22:1 23:2 24:2 28:1 253:0
0 1:14 2:15 3:3 4:5 5:3 6:5 7:2 8:1 9:2 10:3 11:1 25:1 253:0
0 1:6 2:6 4:10 5:4 6:6 9:3 10:8 11:3 15:1 20:3 253:0
0 1:12 2:12 14:6 15:3 16:1 26:4 27:2 253:0
0 1:12 2:12 4:7 5:1 6:4 9:3 10:7 11:1 14:4 15:4 16:2 23:1 28:2 35:1 38:1 40:2 72:4 88:1 89:1 114:2 253:0
0 1:6 2:6 4:5 5:4 6:2 9:3 10:2 11:3 14:4 15:7 16:3 20:4 55:1 253:0
0 1:18 2:18 4:5 5:4 6:2 9:8 10:3 11:7 29:6 58:2 59:1 60:1 61:2 62:1 63:2 64:2 65:1 92:2 253:0
0 1:1 3:2 4:2 5:1 7:4 8:2 9:2 10:1 15:3 16:1 20:3 36:2 37:1 66:2 74:1 97:1 115:1 116:1 117:1 253:0
0 1:12 2:12 4:5 5:3 6:4 9:3 10:1 11:3 14:2 15:2 16:1 20:1 253:0
0 1:12 2:12 4:1 5:1 6:2 9:7 11:5 23:2 24:1 26:2 27:1 28:3 29:4 33:2 34:1 35:1 253:0
0 1:12 2:12 4:11 5:5 6:4 9:5 10:13 11:4 23:2 24:2 28:2 253:0
0 4:23 10:33 12:5 13:2 15:4 16:1 20:7 22:1 23:3 24:5 34:1 112:3 253:0
0 1:3 2:2 4:1 6:1 9:1 17:2 18:1 19:2 21:1 29:1 40:1 72:1 73:1 74:2 97:1 115:1 116:1 117:1 153:1 253:0
0 1:8 2:9 3:3 4:13 5:8 6:1 7:2 8:1 9:6 10:12 11:3 14:2 15:3 16:1 20:1 23:4 24:5 25:1 28:3 253:0
0 1:12 2:12 3:2 4:6 5:5 7:2 8:1 9:6 10:4 11:6 14:2 15:3 16:1 20:3 33:2 34:1 36:1 42:2 43:1 44:2 45:1 142:1 253:0
0 1:6 2:6 4:9 5:5 6:2 9:3 10:8 11:3 15:3 16:1 20:5 22:1 23:1 24:1 253:0
0 1:14 2:12 3:4 4:8 5:3 6:6 7:4 8:2 9:3 10:3 11:3 15:3 16:1 20:3 22:1 23:1 24:1 25:2 29:1 36:1 253:0
0 1:7 2:6 3:2 4:8 5:5 6:3 7:4 8:2 9:10 10:6 11:9 23:3 24:3 25:1 28:3 29:1 33:2 34:1 35:1 36:1 37:1 66:2 253:0
0 4:3 5:3 9:3 10:1 11:1 62:1 107:1 253:0
0 1:6 2:6 4:11 6:2 9:1 10:13 15:2 16:1 20:3 22:1 23:1 24:1 29:2 253:0
0 1:12 2:12 4:1 5:2 9:4 29:4 58:2 59:2 60:2 61:4 62:2 63:4 64:4 65:2 74:2 92:4 97:2 115:2 116:2 117:2 253:0
0 1:12 2:12 3:4 4:4 6:4 7:4 8:2 9:1 10:2 36:2 37:1 40:1 59:1 60:1 61:2 62:1 63:2 64:2 65:1 72:2 73:1 74:1 107:2 122:2 253:0
0 4:21 10:31 12:3 13:1 15:1 20:3 118:1 119:1 253:0
0 1:12 2:12 4:7 5:3 6:4 9:3 10:6 11:3 15:2 16:1 20:2 22:1 23:1 24:1 253:0
0 1:6 2:6 4:4 5:3 6:2 9:3 10:2 11:1 15:1 20:2 29:2 74:1 97:1 115:1 116:1 117:1 253:0
0 1:4 2:3 3:2 4:1 6:2 7:2 8:1 9:2 35:1 40:1 72:1 88:1 89:1 98:1 99:2 114:1 253:0
0 1:6 2:6 4:4 5:6 6:2 9:7 11:4 14:2 15:2 16:1 23:1 24:1 26:2 27:1 28:1 29:2 38:1 39:1 40:1 72:1 253:0
0 1:6 2:6 4:10 5:2 6:4 9:3 10:9 11:1 23:1 28:2 35:1 58:1 59:1 60:1 61:2 62:1 63:2 64:2 65:1 92:2 253:0
0 1:11 2:9 3:5 4:4 6:5 7:5 8:4 10:3 15:1 20:1 22:1 23:1 24:1 25:1 37:1 253:0
0 4:10 10:12 15:2 20:4 22:1 23:1 24:1 253:0
0 1:2 2:1 3:2 4:4 5:2 7:4 8:2 9:5 10:3 11:3 29:2 36:4 37:1 63:2 65:1 74:1 84:2 86:4 105:2 137:1 172:1 253:0
0 1:6 2:6 4:3 5:1 9:2 10:2 11:1 15:1 20:1 22:1 23:2 24:2 28:1 29:2 59:1 60:1 61:2 62:1 63:2 64:2 65:1 92:2 253:0
0 1:6 2:6 4:4 5:2 6:2 9:1 10:3 14:4 15:3 20:2 253:0
0 4:4 15:4 20:4 50:2 51:6 52:6 53:6 82:4 168:1 253:0
0 1:9 2:10 3:3 4:6 5:2 6:4 7:2 8:1 9:3 10:2 11:3 14:2 15:3 16:1 20:1 22:1 23:1 24:1 29:2 253:0
0 1:12 2:12 4:6 5:3 6:2 9:3 10:1 11:3 12:2 13:1 14:4 15:4 16:2 20:2 23:1 24:2 54:1 253:0
0 4:17 10:13 12:8 13:2 15:1 20:1 23:2 24:4 118:4 119:2 253:0
0 1:6 2:6 4:13 6:6 10:16 14:2 15:1 23:1 24:2 118:1 119:1 253:0
0 1:12 2:12 4:3 6:4 10:2 15:1 20:2 23:1 24:2 253:0
0 4:8 5:6 9:2 10:9 11:1 15:1 20:2 74:1 97:2 253:0
0 1:12 2:12 4:4 6:4 10:4 14:2 15:2 20:1 22:1 23:1 24:1 67:4 68:2 253:0
0 1:12 2:12 4:6 5:2 6:6 9:2 10:6 11:1 253:0
0 1:6 2:6 4:10 6:4 10:11 15:2 20:3 22:1 23:1 24:1 253:0
0 1:12 2:12 9:4 11:2 26:4 27:2 29:4 33:2 34:1 35:1 98:1 99:2 253:0
0 1:16 2:15 3:2 4:4 5:2 6:4 7:2 8:1 9:4 11:2 12:4 13:2 15:2 16:1 20:2 22:1 23:2 24:2 28:1 29:1 36:1 41:1 54:1 58:2 59:1 60:1 61:2 62:1 63:2 64:2 65:1 92:2 253:0
0 1:12 2:12 4:5 6:8 10:2 14:2 15:3 16:1 20:2 22:1 23:2 24:3 253:0
0 4:5 5:3 9:2 10:3 11:1 46:2 47:1 48:1 49:1 50:1 51:1 52:1 123:1 253:0
0 4:14 5:6 9:6 10:10 11:3 15:1 20:1 22:1 23:1 24:1 253:0
0 1:7 2:6 3:2 4:5 5:1 6:2 7:4 8:2 9:1 10:3 12:1 13:1 14:2 15:2 16:1 20:1 37:1 41:1 62:2 66:2 93:1 106:1 253:0
0 4:4 10:1 62:4 63:4 64:8 65:2 93:2 107:6 164:1 253:0
0 1:12 2:12 4:10 5:5 6:6 9:5 10:7 11:4 15:2 16:1 20:2 23:2 24:2 28:2 29:2 33:2 34:1 253:0
0 1:6 2:6 4:10 5:6 6:4 9:5 10:8 11:4 23:1 24:1 28:1 29:2 253:0
0 1:6 2:6 4:4 6:4 9:1 10:3 12:2 13:1 23:1 24:2 41:1 253:0
0 4:7 5:2 9:2 10:7 11:1 47:2 48:2 49:4 50:2 51:4 52:4 53:2 123:2 166:1 253:0
0 4:13 10:17 12:5 13:2 23:1 24:2 253:0
0 1:6 2:6 4:10 5:6 6:2 9:6 10:8 11:6 15:4 16:2 20:4 22:1 23:1 24:1 253:0
0 1:6 2:6 7:6 8:3 9:3 11:1 29:2 36:4 37:3 253:0
0 1:12 2:12 4:5 5:3 6:4 9:3 10:1 11:3 15:2 16:1 20:3 22:1 23:1 24:1 253:0
0 4:10 5:2 9:4 10:13 11:2 12:3 13:2 23:2 24:2 28:2 35:1 98:1 99:2 253:0
0 1:12 2:12 4:2 5:4 9:9 10:1 11:9 29:4 62:2 92:4 93:1 253:0
0 1:12 2:12 4:1 5:1 6:2 9:2 11:1 14:2 15:1 23:1 24:1 26:2 27:1 28:1 29:2 30:2 31:1 253:0
0 1:12 2:12 4:5 6:6 10:4 15:1 20:1 22:1 23:1 24:1 253:0
0 4:4 5:1 9:7 10:3 11:4 15:4 16:1 20:6 23:1 28:2 32:1 35:3 38:1 39:2 40:1 253:0
0 1:10 2:9 3:2 4:4 5:2 6:2 7:2 8:1 9:6 10:2 11:2 15:2 16:1 20:1 22:1 23:1 28:1 29:6 32:1 36:2 38:1 40:1 72:2 253:0
0 1:6 2:6 4:4 5:2 6:2 9:2 10:2 11:1 14:2 15:3 16:1 20:3 23:1 24:1 26:2 27:1 28:1 32:1 74:1 75:1 97:2 253:0
0 4:12 10:13 12:3 13:1 15:1 20:3 23:1 24:1 253:0
0 1:18 2:18 4:5 5:1 6:12 9:1 10:1 12:3 13:1 39:1 40:1 72:1 253:0
0 4:13 5:8 9:7 10:9 11:6 15:6 16:3 20:4 22:3 23:3 24:2 28:1 38:1 39:1 40:1 55:2 62:2 93:1 100:1 107:4 253:0
0 1:6 2:6 4:12 5:3 6:4 9:3 10:16 11:3 14:2 15:1 253:0
0 4:20 10:22 12:2 13:1 15:3 20:6 23:1 24:2 253:0
0 1:12 2:12 4:4 5:5 6:4 9:7 11:6 29:2 38:1 39:1 40:1 62:2 72:1 92:4 93:1 253:0
0 1:14 2:13 3:2 4:3 5:3 6:3 7:2 9:6 10:1 11:4 23:1 24:1 25:1 28:1 29:3 36:1 66:1 94:2 95:1 96:1 253:0
0 4:16 10:13 15:5 16:2 20:6 22:2 23:2 24:2 253:0
0 1:8 2:9 3:3 4:16 5:8 6:4 7:2 8:1 9:6 10:16 11:4 23:1 24:1 28:1 66:2 253:0
0 1:12 2:12 4:5 5:2 6:6 9:3 10:2 11:3 23:1 24:1 26:2 27:1 28:1 29:2 40:1 63:2 65:1 72:2 73:1 74:1 84:2 86:4 137:1 172:1 253:0
0 1:7 2:6 3:1 4:7 5:5 6:2 7:1 9:4 10:5 11:2 14:2 15:2 16:1 17:1 19:1 23:1 24:1 28:1 29:1 70:1 71:1 87:1 88:1 94:1 95:1 114:2 153:1 169:1 170:1 253:0
0 1:12 2:12 4:6 5:4 6:4 9:3 10:5 11:1 14:2 15:2 20:2 29:2 58:1 59:1 60:1 61:2 62:1 63:2 64:2 65:1 253:0
0 1:12 2:12 4:6 5:4 6:4 9:2 10:4 11:1 14:2 15:3 16:1 20:3 253:0
0 1:6 2:6 4:11 6:4 10:11 15:1 20:1 22:1 23:2 24:3 26:2 27:1 253:0
0 1:12 2:12 4:3 5:2 6:2 9:6 10:1 11:6 23:2 24:2 28:2 29:6 34:3 112:3 113:3 253:0
0 4:9 5:1 9:3 10:6 11:3 15:10 16:4 20:16 55:2 253:0
0 1:12 2:12 4:5 5:2 6:4 9:3 10:3 11:3 15:2 16:1 20:4 26:2 27:1 253:0
0 1:12 2:12 4:3 6:4 9:2 10:1 11:1 15:2 16:1 20:1 22:1 23:2 24:2 28:1 29:2 32:1 34:3 58:2 59:1 60:1 61:2 62:1 63:2 64:2 65:1 113:3 180:3 253:0
0 4:3 5:2 9:2 10:2 11:1 23:2 24:2 28:2 56:2 57:1 253:0
0 1:8 2:9 3:3 4:9 5:10 6:3 7:2 8:1 9:7 10:4 11:6 25:1 66:2 253:0
0 1:3 2:2 4:2 5:1 6:1 9:2 17:2 18:1 19:2 21:1 23:1 24:1 28:1 29:1 40:1 72:1 74:1 88:1 89:1 97:1 114:1 115:1 116:1 117:1 153:1 253:0
0 1:12 2:12 4:6 5:3 6:4 9:3 10:3 11:3 15:2 16:1 20:2 22:1 23:1 24:1 253:0
0 4:9 5:6 9:6 10:4 11:6 15:4 20:8 253:0
0 1:6 2:6 4:5 5:4 6:2 9:4 10:4 11:3 23:1 24:1 28:1 253:0
0 4:4 5:3 9:3 10:1 11:1 15:2 20:2 27:2 32:1 50:1 51:1 52:1 76:2 77:3 78:2 79:1 80:2 81:2 82:1 253:0
0 31:3 207:3 253:0
0 1:6 2:6 4:5 5:2 6:2 9:2 10:6 23:1 24:1 28:1 88:1 114:2 253:0
0 4:12 10:18 15:1 20:3 23:1 24:2 253:0
0 4:4 5:2 9:3 10:3 11:1 23:2 24:2 28:2 40:1 72:2 88:1 89:1 114:2 253:0
0 1:6 2:6 4:15 5:9 6:2 9:5 10:14 11:4 15:2 20:2 22:2 23:3 24:3 28:1 253:0
0 1:8 2:9 3:3 4:11 5:5 6:3 7:2 8:1 9:4 10:12 11:3 15:1 20:1 25:1 32:1 66:2 253:0
0 4:3 5:6 7:6 8:3 9:9 11:9 36:6 37:3 253:0
0 4:2 5:2 9:4 11:2 15:1 20:1 23:1 27:1 28:2 35:1 76:1 88:1 114:2 116:1 188:1 253:0
0 1:6 2:6 4:16 5:8 6:2 9:7 10:19 11:5 12:3 13:1 15:1 20:1 22:1 23:3 24:3 28:2 253:0
0 4:6 5:1 9:2 10:8 11:1 15:2 16:1 20:1 22:1 23:2 24:1 28:2 32:1 253:0
0 1:18 2:16 3:4 4:3 5:2 6:4 7:4 8:1 9:3 11:1 14:2 15:3 16:1 20:2 22:1 23:1 24:1 29:2 58:2 59:1 60:1 61:2 62:1 63:2 64:2 65:1 66:1 92:2 94:2 95:1 96:1 253:0
0 1:12 2:12 4:4 5:4 6:4 9:6 10:1 11:3 14:4 15:4 16:2 23:2 24:2 28:2 29:2 253:0
0 1:12 2:12 4:8 5:2 6:8 9:3 10:5 11:3 12:4 13:1 15:1 20:2 253:0
0 1:10 2:10 3:5 4:10 5:6 6:6 7:4 8:1 9:7 10:7 11:4 23:1 25:2 28:2 35:1 66:3 94:2 95:1 96:1 253:0
0 1:6 2:6 4:4 5:2 9:3 10:4 11:1 26:2 27:1 29:2 35:1 58:1 59:2 60:2 61:4 62:2 63:4 64:4 65:2 92:4 253:0
0 4:24 10:35 12:5 13:2 15:3 16:1 20:4 22:1 23:3 24:5 27:1 34:1 76:3 112:2 253:0
0 1:6 2:6 4:7 5:3 6:2 9:3 10:5 11:3 14:6 15:6 16:3 23:1 24:1 28:1 253:0
0 1:6 2:6 4:4 5:3 6:2 9:2 10:2 11:1 14:2 15:2 20:2 253:0
0 1:2 2:1 3:2 4:6 5:7 7:4 8:2 9:11 10:2 11:10 23:2 24:1 28:3 35:1 36:2 37:1 40:1 72:1 88:1 89:1 114:2 253:0
0 1:8 2:9 3:3 4:9 5:5 6:3 7:2 8:1 9:4 10:8 11:3 15:1 20:1 25:1 32:1 66:2 253:0
0 1:7 2:6 3:1 4:4 6:3 7:2 8:1 10:3 15:1 20:1 22:1 23:1 24:1 25:2 30:2 31:1 42:1 43:1 44:2 45:1 102:1 253:0
0 1:11 2:14 4:2 5:1 9:1 10:1 14:2 15:2 16:1 20:2 39:1 40:1 72:1 73:1 74:1 253:0
0 1:12 2:12 4:11 5:3 6:4 9:3 10:13 11:3 15:2 16:1 20:2 22:1 23:1 24:1 253:0
0 1:6 2:6 4:13 10:12 12:2 13:1 14:2 15:6 16:1 20:8 22:1 23:1 24:1 26:2 27:1 62:2 93:1 107:3 253:0
0 1:7 2:6 3:6 4:3 5:1 6:1 7:4 8:2 9:1 10:1 23:1 24:1 25:1 28:1 40:1 72:1 74:2 88:1 89:1 90:1 91:1 105:4 114:1 253:0
0 1:12 2:12 4:6 5:7 6:6 9:6 10:1 11:6 23:1 24:1 28:1 253:0
0 1:10 2:9 3:2 4:3 6:6 7:6 8:2 9:1 15:1 20:1 25:4 37:2 66:1 94:2 95:1 96:1 253:0
0 1:24 2:24 4:6 6:8 10:4 14:10 15:9 16:3 20:8 55:1 253:0
0 1:6 2:6 4:4 7:2 9:1 10:3 25:1 26:2 27:1 36:1 43:1 44:2 45:2 58:1 59:1 60:1 61:2 62:1 63:2 64:2 65:1 92:2 94:2 95:1 102:1 142:1 253:0
0 4:14 10:19 15:1 20:1 22:1 23:1 24:1 253:0
0 1:6 2:6 4:8 5:2 6:2 9:5 10:6 11:3 12:3 13:1 23:1 24:1 28:1 29:4 38:1 40:1 72:2 74:1 97:1 115:1 116:1 117:1 253:0
0 1:6 2:6 4:8 5:4 6:2 9:4 10:5 11:3 15:2 16:1 20:2 22:1 23:1 24:1 29:2 253:0
0 1:12 2:12 4:6 5:2 9:4 10:4 11:2 12:3 13:1 15:1 20:1 23:2 24:2 28:2 29:4 54:1 88:1 114:4 253:0
0 1:5 2:3 3:4 4:7 6:2 7:6 8:3 9:1 10:5 12:1 13:1 15:2 16:1 20:3 22:1 23:1 24:1 37:1 41:1 66:2 253:0
0 1:20 2:19 3:2 4:4 6:8 7:2 9:1 10:1 15:1 20:1 22:1 23:1 24:1 25:2 29:2 66:1 94:2 95:1 96:1 253:0
0 1:6 2:6 4:12 5:3 6:8 9:3 10:11 11:1 38:1 39:1 40:1 72:1 253:0
0 4:12 10:13 15:4 16:2 20:5 22:1 23:1 24:1 253:0
0 1:6 2:6 4:7 5:2 6:4 9:1 10:7 15:1 20:3 253:0
0 1:6 2:6 4:15 10:14 12:4 13:2 14:2 15:9 16:3 20:12 22:1 23:1 24:1 26:2 27:1 55:1 253:0
0 1:6 2:6 4:13 5:6 6:4 9:8 10:14 11:6 12:2 13:1 15:1 20:1 22:1 23:2 24:3 29:6 33:2 34:1 41:1 253:0
0 1:20 2:18 3:4 4:7 5:6 6:12 7:4 8:2 9:4 10:2 11:2 23:2 24:2 28:2 253:0
0 1:6 2:6 4:3 5:2 6:2 9:2 10:2 11:1 14:2 15:1 253:0
0 1:12 2:12 4:7 5:1 6:8 9:3 10:4 11:3 15:4 16:2 20:7 55:1 253:0
0 1:12 2:12 4:6 6:4 10:7 14:4 15:2 34:3 112:3 113:3 253:0
0 1:8 2:9 3:3 4:10 5:4 6:3 7:2 8:1 9:3 10:11 11:3 15:1 20:1 25:1 253:0
0 1:6 2:6 4:10 5:3 6:8 9:2 10:5 11:1 253:0
0 1:6 2:6 4:6 5:3 9:4 10:4 11:3 26:4 27:2 29:2 38:1 39:1 40:1 72:1 253:0
0 4:7 5:1 9:1 10:7 15:2 16:1 20:5 23:1 24:1 28:1 253:0
0 1:6 2:6 4:5 5:3 9:6 10:3 11:4 15:2 16:1 20:2 26:4 27:2 29:2 32:1 35:1 38:1 39:2 40:1 253:0
0 1:6 2:6 4:11 5:5 9:6 10:9 11:6 14:2 15:5 16:2 20:6 29:2 118:1 119:1 253:0
0 1:12 2:12 4:2 6:4 23:1 24:1 62:2 93:1 107:2 109:1 253:0
0 1:6 2:6 4:5 6:2 10:2 12:2 13:1 14:4 15:6 16:2 20:5 22:1 23:2 24:3 54:1 62:2 93:1 107:1 253:0
0 1:6 2:6 4:8 5:6 6:2 9:5 10:7 11:4 14:4 15:5 16:2 20:2 23:1 24:1 28:1 62:1 63:2 64:2 65:1 83:1 84:1 85:1 86:2 92:2 253:0
0 4:3 10:1 15:2 20:2 22:2 23:2 24:2 62:2 93:1 107:2 253:0
0 1:6 2:6 4:9 5:3 6:2 9:3 10:7 11:3 15:2 16:1 20:3 253:0
0 1:7 2:6 3:2 4:2 5:2 6:3 7:4 8:2 9:10 11:9 23:2 24:1 25:1 28:3 29:3 35:1 36:1 37:1 66:2 253:0
0 1:6 2:6 4:1 14:6 15:7 16:3 20:2 253:0
0 1:12 2:12 4:3 5:1 6:2 9:2 11:1 14:4 15:6 16:3 20:4 22:1 23:2 24:2 28:1 29:2 55:3 253:0
0 1:7 2:6 3:2 4:2 5:1 6:2 7:4 8:2 9:1 15:2 16:1 20:2 22:1 23:1 24:1 37:1 66:2 253:0
0 1:12 2:12 4:3 6:4 10:1 14:2 15:3 16:1 20:2 22:1 23:2 24:3 26:6 27:3 59:1 60:1 61:2 62:1 63:2 64:2 65:1 92:2 253:0
0 1:11 2:14 4:7 5:2 6:2 9:4 10:10 11:3 23:1 24:1 28:1 253:0
0 1:6 2:6 4:6 5:3 6:2 9:3 10:2 11:3 12:2 13:1 14:2 15:3 16:1 20:3 253:0
0 4:11 5:9 9:4 10:12 11:2 15:3 20:4 23:1 24:1 28:1 74:1 97:2 253:0
0 4:22 10:33 12:6 13:2 15:2 20:5 23:2 24:3 253:0
0 1:6 2:6 4:13 5:3 6:4 9:3 10:18 11:3 14:4 15:4 16:1 20:5 253:0
0 1:12 2:12 4:10 5:1 6:4 9:3 10:10 11:1 14:2 15:4 16:2 20:3 22:2 23:2 24:2 35:1 39:2 40:1 253:0
0 4:7 5:2 9:1 10:6 88:1 114:1 253:0
0 1:12 2:12 4:3 5:3 6:2 9:5 10:1 11:3 23:1 24:1 28:1 29:4 39:1 40:2 72:3 73:1 74:1 88:1 89:1 114:1 253:0
0 1:12 2:12 4:14 5:4 6:6 9:3 10:17 11:3 14:2 15:1 23:1 24:2 253:0
0 1:6 2:6 4:12 5:3 6:4 9:3 10:16 11:3 14:4 15:3 16:1 20:2 253:0
0 4:10 5:4 9:3 10:8 11:3 12:3 13:1 15:2 16:1 20:3 22:1 23:1 24:1 253:0
0 1:6 2:6 4:2 6:2 9:1 15:4 16:2 20:2 22:1 23:1 28:1 32:1 58:1 59:1 60:1 61:2 62:1 63:2 64:2 65:1 92:2 253:0
0 1:18 2:18 4:5 5:1 6:8 9:2 10:6 11:1 14:4 15:2 23:1 24:1 28:1 29:2 63:4 65:2 83:2 84:4 86:8 137:2 253:0
0 4:24 10:32 12:4 13:1 15:11 16:5 20:21 22:3 23:3 24:3 253:0
0 1:6 2:6 4:8 6:8 10:3 14:4 15:5 16:2 20:4 22:2 23:2 24:2 253:0
0 1:12 2:12 4:9 5:6 6:6 9:6 10:5 11:6 15:1 20:1 33:2 34:4 62:2 92:4 93:1 112:3 113:3 253:0
0 1:6 2:6 4:2 5:1 6:4 9:1 14:2 15:1 23:1 24:1 28:1 30:2 31:1 253:0
0 1:6 2:6 4:10 5:3 6:2 9:3 10:8 11:3 15:2 16:1 20:4 26:2 27:1 253:0
0 1:6 2:6 4:9 5:5 6:2 9:3 10:5 11:3 14:2 15:3 16:1 20:3 253:0
0 1:8 2:9 3:3 4:6 5:3 6:4 7:2 8:1 9:3 10:4 11:3 15:2 16:1 20:4 62:2 93:1 107:1 253:0
0 1:6 2:6 4:5 5:3 6:2 9:3 10:1 11:3 12:2 13:1 14:2 15:5 16:2 20:4 253:0
0 1:8 2:9 4:4 5:2 6:1 9:4 10:4 11:3 17:3 18:1 19:2 21:1 38:1 39:1 40:1 72:1 253:0
0 1:6 2:6 4:11 6:2 10:14 15:1 20:1 22:1 23:2 24:3 253:0
0 1:9 2:8 4:2 6:3 14:2 15:3 16:1 20:2 22:2 23:2 24:2 42:2 43:1 44:2 102:1 253:0
0 1:12 2:12 4:5 5:5 6:4 9:5 10:2 11:4 15:2 16:1 20:4 23:1 24:1 26:2 27:1 28:1 29:2 32:1 253:0
0 1:6 2:6 4:2 6:2 12:2 13:1 14:4 15:4 16:1 20:1 22:1 23:1 24:1 253:0
0 4:2 5:2 9:1 10:1 15:2 16:1 20:1 22:1 23:1 24:1 62:1 107:1 253:0
0 1:6 2:6 4:6 5:5 6:2 9:4 10:4 11:2 23:1 24:1 28:1 29:2 253:0
0 4:17 10:17 12:5 13:2 15:10 16:5 20:12 22:3 23:3 24:3 54:1 55:1 253:0
0 1:12 2:12 4:1 5:1 6:2 9:2 11:1 14:2 15:1 23:1 24:1 28:1 29:2 253:0
0 1:6 2:6 4:2 14:2 15:3 20:2 26:4 27:2 51:3 53:3 82:3 129:3 130:1 253:0
0 1:6 2:6 4:5 5:7 9:8 11:7 23:1 24:1 26:2 27:1 28:1 29:2 253:0
0 1:6 2:6 4:5 5:3 6:2 9:4 10:3 11:3 14:4 15:4 16:2 38:1 39:1 40:1 72:1 253:0
0 1:6 2:6 4:1 6:2 15:5 20:1 26:2 27:1 46:1 47:1 48:1 49:2 50:2 51:5 52:5 53:4 82:5 151:1 253:0
0 1:6 2:6 4:7 5:5 6:4 9:6 10:3 11:4 12:4 13:2 14:2 15:2 20:1 23:2 24:2 28:2 29:2 32:1 41:1 253:0
0 1:6 2:4 4:4 6:2 9:4 10:1 12:4 13:2 17:4 18:2 19:4 21:2 29:2 35:1 39:2 40:2 72:2 74:2 88:1 89:1 97:2 114:1 115:2 116:2 117:2 153:2 253:0
0 4:24 10:38 15:1 20:2 23:2 24:4 253:0
0 1:4 2:3 3:2 4:4 5:3 6:2 7:2 8:1 9:2 10:3 11:1 253:0
0 1:6 2:6 4:10 5:3 6:2 9:3 10:9 11:3 15:3 16:1 20:3 22:2 23:3 24:3 28:1 29:2 253:0
0 1:6 2:6 4:2 5:1 6:2 9:2 10:1 15:2 16:1 20:2 26:2 27:1 32:1 38:1 39:1 40:1 141:1 253:0
0 1:9 2:8 3:2 4:2 5:4 7:2 9:9 11:9 14:3 15:2 16:1 29:5 36:1 94:2 95:1 103:1 253:0
0 1:12 2:12 3:4 4:8 6:2 7:2 9:1 10:13 14:2 15:1 29:2 94:2 95:2 96:2 144:1 253:0
0 4:4 5:3 9:2 10:3 11:1 15:1 20:1 22:1 23:1 24:1 253:0
0 1:6 2:6 4:7 5:4 6:2 9:4 10:4 11:2 15:3 20:3 22:3 23:4 24:3 28:2 33:2 34:1 35:1 62:2 93:1 107:2 253:0
0 4:4 5:1 9:3 10:2 11:1 12:3 13:1 23:2 24:1 28:3 35:1 253:0
0 1:12 2:12 3:4 4:2 6:2 7:4 8:2 10:1 25:2 37:1 253:0
0 1:14 2:12 3:4 4:6 5:4 6:6 7:4 9:5 10:2 11:3 15:2 16:1 20:2 23:1 24:1 28:1 29:4 94:4 95:4 96:4 144:2 253:0
0 4:6 10:3 12:2 13:2 15:4 16:2 20:6 22:2 23:2 24:2 62:4 93:2 106:4 164:1 253:0
0 4:5 10:4 15:2 20:2 22:2 23:2 24:2 253:0
0 1:6 2:6 4:9 5:4 6:4 9:3 10:7 11:3 14:2 15:3 16:1 20:5 23:1 24:1 28:1 90:1 91:1 253:0
0 1:6 2:6 4:9 5:7 6:2 9:6 10:6 11:6 23:1 24:2 33:2 34:1 253:0
0 1:6 2:6 4:5 5:1 9:3 10:3 11:3 14:2 15:7 16:3 20:6 22:1 23:1 28:1 29:2 32:1 34:3 112:3 113:3 253:0
0 1:12 2:12 4:8 5:5 6:2 9:7 10:6 11:5 12:3 13:1 23:1 24:1 28:1 29:2 41:1 88:1 114:4 253:0
0 1:12 2:12 4:7 5:3 6:4 9:3 10:4 11:3 15:2 16:1 20:3 253:0
0 4:6 5:2 9:1 10:7 12:2 13:1 15:1 20:1 22:1 23:1 24:1 253:0
0 1:12 2:12 4:8 5:7 6:4 9:8 10:3 11:7 14:2 15:2 16:1 20:1 23:1 24:1 28:1 29:2 35:1 253:0
0 1:6 2:4 4:6 5:5 6:6 9:7 10:1 11:6 12:3 13:1 29:2 38:1 39:1 40:1 42:4 43:2 44:4 72:1 90:1 91:1 253:0
0 4:22 10:31 12:7 13:2 23:2 24:4 253:0
0 4:3 5:2 9:3 10:1 11:3 15:3 16:1 20:2 22:2 23:2 24:1 28:1 32:1 62:2 93:1 100:1 107:1 253:0
0 4:5 5:1 9:4 10:3 11:6 15:3 16:1 20:4 22:2 23:2 24:2 253:0
0 1:6 2:6 4:12 5:9 6:2 9:6 10:9 11:3 15:2 20:2 22:2 23:3 24:3 28:1 88:1 114:4 253:0
0 4:11 5:8 9:12 10:4 11:12 15:4 16:2 20:4 23:2 28:4 35:2 253:0
0 1:8 2:9 3:3 4:3 5:3 6:1 7:2 8:1 9:3 10:1 11:1 25:1 66:2 253:0
0 1:6 2:6 4:4 5:4 6:2 9:5 10:4 11:4 23:2 24:1 28:3 35:1 253:0
0 1:6 2:6 4:9 5:7 6:4 9:6 10:4 11:4 15:3 16:1 20:4 22:1 23:3 24:3 28:2 39:1 40:1 72:1 253:0
0 1:12 2:12 4:10 5:3 6:4 9:3 10:9 11:3 23:2 24:4 33:4 34:2 253:0
0 1:6 2:6 4:7 5:2 6:2 9:2 10:5 11:1 12:6 13:2 14:2 15:6 16:3 20:2 22:2 23:2 24:2 34:2 41:2 111:2 113:1 253:0
0 1:2 2:1 3:2 4:7 5:2 6:2 7:4 8:2 9:4 10:1 11:3 12:2 13:1 15:6 16:3 20:3 22:3 23:3 25:2 28:1 29:1 36:1 37:1 41:1 55:1 62:2 93:1 106:1 107:1 108:1 109:1 253:0
0 1:16 2:15 3:6 4:8 5:4 6:10 7:6 8:3 9:5 10:3 11:3 14:2 15:2 16:1 25:2 29:3 33:2 34:1 36:1 37:1 90:1 91:1 253:0
0 1:9 2:8 4:8 5:5 6:3 9:4 10:4 11:2 14:2 15:5 16:2 20:5 22:1 23:2 24:2 28:1 29:2 42:2 43:1 44:2 102:1 253:0
0 4:14 5:3 9:3 10:17 11:3 15:7 16:3 20:9 55:2 253:0
0 4:7 5:1 9:1 10:9 12:1 13:1 23:1 24:1 28:1 253:0
0 1:6 2:6 4:12 5:3 6:4 9:3 10:16 11:3 14:4 15:6 16:2 20:5 253:0
0 4:9 5:2 9:4 10:12 11:2 23:2 24:2 28:2 35:1 62:2 93:1 98:1 99:2 107:1 253:0
0 1:6 2:6 4:3 5:1 6:4 9:3 11:3 12:2 13:1 23:1 24:1 28:1 29:2 34:3 112:3 113:3 253:0
0 1:6 2:6 4:13 5:12 6:2 9:12 10:7 11:10 23:4 24:4 28:4 33:2 34:1 253:0
0 1:7 2:6 3:2 4:7 5:1 6:6 7:4 8:2 9:1 10:6 15:1 20:1 22:1 23:1 24:1 37:1 66:2 253:0
0 1:12 2:12 4:10 5:4 9:6 10:10 11:6 15:3 16:1 20:5 22:1 23:1 24:1 26:2 27:1 29:4 62:2 92:4 93:1 253:0
0 1:6 2:6 4:17 5:7 6:2 9:6 10:17 11:6 14:4 15:4 16:2 20:1 23:2 24:2 28:2 253:0
0 1:18 2:18 4:5 5:7 6:6 9:6 10:1 11:6 14:4 15:4 16:2 55:1 253:0
0 1:6 2:6 4:6 5:6 6:2 9:7 11:6 15:2 16:1 20:2 22:1 23:1 24:1 29:2 253:0
0 1:6 2:6 4:7 5:7 9:7 10:3 11:6 26:2 27:1 29:2 38:1 39:1 40:1 62:2 72:1 92:2 93:1 107:1 253:0
0 4:8 5:2 9:5 10:10 11:2 15:2 16:1 20:1 22:1 23:4 24:2 28:5 32:1 35:1 253:0
0 1:12 2:12 4:3 10:3 14:4 15:4 16:2 20:4 22:1 23:1 24:1 26:4 27:2 253:0
0 1:18 2:18 4:6 5:7 6:2 9:10 10:2 11:8 14:2 15:2 16:1 23:1 24:1 28:1 29:6 33:2 34:1 88:1 114:4 253:0
0 1:3 2:2 4:12 5:7 6:1 9:5 10:10 11:4 15:3 16:1 17:2 18:1 19:2 20:4 21:1 22:2 23:4 24:4 28:2 62:2 93:1 100:1 107:4 253:0
0 1:3 2:2 4:8 5:6 6:1 9:5 10:3 11:4 12:3 13:1 15:4 16:1 17:2 18:1 19:2 20:3 21:1 22:2 23:4 24:4 28:2 40:1 41:1 62:2 72:2 73:1 74:1 75:1 93:1 100:1 107:2 253:0
0 1:6 2:6 4:8 5:3 6:2 9:3 10:4 11:3 14:6 15:8 16:4 20:3 22:1 23:1 24:1 253:0
0 1:7 2:8 3:3 4:5 5:4 7:4 8:2 9:6 10:3 11:6 14:4 15:6 16:3 20:1 22:1 23:1 28:1 29:1 32:1 36:1 37:1 253:0
0 1:12 2:12 4:9 5:3 6:4 9:3 10:7 11:3 15:4 16:2 20:6 22:1 23:1 24:1 55:1 253:0
0 1:6 2:6 4:13 5:3 6:2 9:2 10:15 11:1 14:2 15:3 16:1 20:3 253:0
0 1:6 2:6 4:1 5:1 6:2 9:1 23:1 24:1 26:2 27:1 28:1 59:1 60:1 61:2 62:1 63:2 64:2 65:1 92:2 253:0
0 1:12 2:12 4:4 5:1 6:6 9:3 10:1 11:3 15:2 16:1 20:3 23:1 24:1 28:1 29:2 253:0
0 1:3 2:2 4:14 10:14 12:4 13:2 14:2 15:6 16:1 20:8 22:1 23:1 24:1 42:2 43:1 44:2 253:0
0 1:12 2:12 4:5 5:3 6:6 9:5 10:2 11:4 29:2 253:0
0 1:12 2:12 4:1 5:1 6:2 9:2 11:1 14:4 15:2 23:1 24:1 28:1 29:2 30:2 31:1 253:0
0 1:7 2:8 3:1 4:1 5:1 7:1 9:2 11:1 29:1 36:1 42:2 44:1 174:1 175:1 176:1 253:0
0 1:6 2:6 4:15 5:4 6:4 9:2 10:17 11:1 14:2 15:3 16:1 20:3 23:1 24:2 253:0
0 1:12 2:12 4:5 6:6 10:2 12:3 13:1 23:1 24:2 253:0
0 1:12 2:12 4:8 5:1 6:8 9:1 10:8 15:1 20:1 40:1 72:2 73:1 74:1 75:1 253:0
0 1:6 2:6 4:5 5:4 6:2 9:2 10:4 11:1 15:1 20:2 33:2 34:1 253:0
0 1:4 2:2 3:2 4:5 5:1 6:1 7:4 8:2 9:2 10:5 23:1 24:1 28:1 29:2 37:1 40:1 42:2 43:1 44:2 66:2 72:2 88:1 89:1 102:1 114:1 253:0
0 1:6 2:6 4:6 5:3 6:2 9:2 10:5 11:1 14:4 15:3 20:2 253:0
0 4:9 5:3 9:1 10:9 253:0
0 1:6 2:6 4:10 5:3 6:2 9:3 10:8 11:3 15:2 16:1 20:4 22:1 23:1 24:1 118:1 119:1 253:0
0 1:12 2:12 4:5 5:3 6:6 9:6 10:2 11:6 29:2 253:0
0 1:6 2:4 4:6 5:4 6:2 9:3 10:2 11:3 12:3 13:1 42:4 43:2 44:4 102:2 253:0
0 4:5 5:5 9:5 10:2 11:4 15:1 20:1 22:1 23:3 24:3 28:2 62:3 93:1 100:1 107:3 253:0
0 1:14 2:15 4:7 5:7 6:4 9:9 10:3 11:9 17:3 18:1 19:2 23:1 24:1 28:1 29:2 253:0
0 1:12 2:12 4:5 5:3 9:6 10:7 11:6 29:4 62:2 92:4 93:1 253:0
0 1:6 2:6 4:5 6:2 10:6 15:2 20:6 26:2 27:1 253:0
0 1:6 2:6 4:11 5:6 6:2 9:7 10:7 11:5 12:2 13:1 23:1 24:1 28:1 35:1 39:2 40:1 58:2 59:1 60:1 61:2 62:1 63:2 64:2 65:1 92:2 253:0
0 1:6 2:6 4:11 6:2 10:15 14:2 15:1 253:0
0 4:5 5:4 9:3 10:3 11:1 15:1 20:1 22:1 23:2 24:2 28:1 62:1 63:2 64:2 65:1 84:1 85:1 86:2 107:1 253:0
0 1:12 2:12 4:3 5:1 6:4 9:3 10:1 11:3 12:3 13:1 62:2 92:4 93:1 253:0
0 1:6 2:6 4:11 5:2 6:4 9:2 10:10 11:1 14:4 15:4 16:2 20:2 22:2 23:2 24:2 253:0
0 1:12 2:12 4:6 5:5 6:2 9:6 10:3 11:6 23:1 24:1 28:1 29:2 253:0
0 1:18 2:18 4:4 5:1 9:3 10:4 11:1 15:1 20:1 22:1 23:2 24:2 28:1 29:4 62:2 63:1 64:2 88:1 92:2 93:1 107:1 114:3 253:0
0 4:10 5:2 9:4 10:13 11:2 23:3 24:2 28:4 35:1 253:0
0 1:12 2:12 4:5 5:4 6:2 9:8 10:2 11:7 12:2 13:1 15:1 20:1 22:1 23:2 24:3 29:6 33:4 34:2 41:1 253:0
0 1:4 2:3 3:2 4:3 5:3 7:2 8:1 9:3 11:3 15:2 16:1 20:2 26:1 27:1 62:2 92:1 93:1 107:1 110:1 132:1 253:0
0 4:14 5:6 9:5 10:18 11:4 23:4 24:4 28:4 253:0
0 1:6 2:6 4:9 5:7 6:2 9:8 10:6 11:7 12:2 13:1 14:2 15:3 16:1 20:1 22:1 23:2 24:3 29:4 33:2 34:3 41:1 111:2 113:1 253:0
0 1:7 2:8 3:1 4:14 5:8 7:1 9:9 10:14 11:9 23:2 24:2 28:2 29:1 36:1 42:2 44:1 174:1 175:1 176:1 253:0
0 4:5 5:4 9:6 10:3 11:4 12:1 13:1 15:3 16:1 20:4 23:2 24:1 28:3 32:1 35:1 41:1 127:1 128:2 216:1 253:0
0 4:2 10:1 34:7 112:8 113:6 253:0
0 1:12 2:12 4:4 5:3 6:4 9:3 10:2 11:3 74:1 97:3 253:0
0 1:6 2:4 4:4 5:2 6:2 9:3 10:2 11:3 12:3 13:1 42:4 43:2 44:4 102:2 253:0
0 1:6 2:6 4:8 5:2 6:2 9:5 10:4 11:2 15:8 16:4 20:13 22:1 23:2 24:1 27:1 28:2 29:2 32:1 35:1 55:1 74:1 76:1 88:1 97:1 114:2 115:1 116:2 117:1 188:1 253:0
0 4:8 5:4 9:6 10:10 11:4 35:1 39:2 40:1 253:0
0 1:12 2:12 4:5 5:6 9:8 10:1 11:7 14:4 15:4 16:2 20:1 23:1 24:1 28:1 29:4 33:2 34:1 253:0
0 1:6 2:6 4:9 5:6 6:2 9:7 10:6 11:4 14:2 15:4 16:2 20:3 23:1 24:1 28:1 29:4 74:1 97:1 115:1 116:1 117:1 253:0
0 1:6 2:6 4:4 6:4 23:2 24:2 62:4 93:2 107:4 109:2 253:0
0 1:12 2:12 4:2 6:4 9:1 10:1 23:1 24:2 29:2 34:2 58:1 59:1 60:1 61:2 62:1 63:2 64:2 65:1 113:1 180:2 253:0
0 1:12 2:12 4:8 5:1 6:8 9:2 10:8 11:1 12:3 13:1 253:0
0 1:12 2:12 4:4 5:3 6:4 9:6 10:1 11:6 15:1 20:1 23:2 24:3 26:2 27:1 28:1 29:2 253:0
0 4:10 5:4 9:2 10:10 11:1 15:2 20:3 40:1 72:2 73:1 74:1 75:1 253:0
0 1:12 2:12 4:11 5:3 6:4 9:3 10:8 11:3 15:4 16:2 20:6 22:2 23:2 24:2 253:0
0 1:6 2:6 4:6 5:5 9:5 10:4 11:4 14:2 15:2 16:1 23:1 24:1 28:1 29:2 59:1 60:1 61:2 62:1 63:2 64:2 65:1 92:2 253:0
0 1:12 2:12 4:15 5:4 6:4 9:3 10:21 11:3 15:1 20:1 22:1 23:1 24:1 33:2 34:1 90:1 91:1 253:0
0 1:6 2:6 4:7 5:3 9:2 10:5 11:1 14:2 15:3 16:1 20:4 22:1 23:3 24:3 26:2 27:1 28:1 62:2 93:1 107:2 109:1 253:0
0 1:6 2:6 4:13 5:6 6:2 9:3 10:12 11:3 15:3 16:1 20:4 22:1 23:1 24:1 253:0
0 1:6 2:6 4:3 6:2 10:1 14:2 15:3 16:1 20:2 22:1 23:1 24:1 62:1 63:2 64:2 65:1 84:1 85:1 86:2 107:1 253:0
0 1:12 2:12 4:5 5:1 6:6 9:3 10:2 11:3 14:2 15:6 16:3 20:8 55:1 253:0
0 1:8 2:7 3:2 4:2 6:1 7:4 8:2 9:2 25:3 26:2 27:1 29:3 36:1 37:1 58:1 59:1 60:1 61:2 62:1 63:2 64:2 65:1 92:2 253:0
0 1:6 2:6 4:1 6:2 9:1 15:2 16:1 20:1 22:1 23:1 27:3 28:1 32:1 40:1 58:1 59:1 60:1 62:1 72:1 88:1 89:1 104:3 114:1 141:1 182:1 218:3 253:0
0 1:6 2:6 4:9 6:2 10:8 12:8 13:3 14:4 15:5 16:2 20:2 22:1 23:1 24:1 253:0
0 1:14 2:12 3:4 4:7 6:4 7:4 8:2 10:4 14:2 15:8 16:4 20:10 22:3 23:3 24:3 26:2 27:1 253:0
0 4:13 5:3 9:3 10:13 11:3 15:1 20:1 253:0
0 1:6 2:6 4:3 5:2 6:2 9:2 10:1 15:2 16:1 20:1 22:1 23:1 28:1 32:1 88:1 114:2 253:0
0 4:11 10:14 15:3 16:1 20:5 22:1 23:1 24:1 253:0
0 1:6 2:6 4:5 5:2 6:2 9:2 10:1 11:1 14:2 15:5 16:2 20:4 22:2 23:3 24:3 28:1 55:1 62:2 93:1 107:3 108:2 253:0
0 1:6 2:6 4:12 5:3 6:4 9:3 10:15 11:3 12:3 13:1 14:4 15:3 16:1 20:2 253:0
0 1:6 2:6 4:7 5:6 6:4 9:6 10:4 11:4 12:2 13:1 14:4 15:4 16:2 23:1 28:2 35:1 38:1 39:1 40:1 41:1 72:1 253:0
0 1:12 2:12 4:4 5:3 6:4 9:2 10:2 11:1 14:6 15:4 16:1 20:1 26:2 27:1 253:0
0 1:3 2:2 4:4 5:4 6:1 9:9 11:7 15:2 16:1 17:2 18:1 19:2 20:2 21:1 23:2 24:1 28:3 29:1 35:2 40:1 72:1 74:1 88:1 89:1 97:1 114:2 115:1 116:1 117:1 153:1 253:0
0 1:6 2:6 4:11 5:7 6:2 9:8 10:13 11:7 23:1 28:2 29:2 35:1 253:0
0 1:12 2:12 4:7 5:6 6:2 9:7 10:3 11:5 12:3 13:1 15:2 16:1 20:3 23:1 24:1 28:1 29:2 41:1 88:1 114:4 253:0
0 1:6 2:6 4:10 5:1 6:6 9:2 10:12 11:1 12:2 13:1 14:2 15:1 23:1 24:1 28:1 39:1 40:1 62:2 93:1 100:1 106:1 107:1 149:1 253:0
0 1:8 2:9 3:3 4:4 5:2 6:2 7:2 8:1 9:4 10:2 11:3 40:1 66:2 72:2 73:1 74:1 253:0
0 1:12 2:12 4:6 5:4 6:4 9:5 10:4 11:4 23:2 24:3 26:4 27:2 28:1 29:2 253:0
0 1:9 2:8 4:12 5:3 6:7 9:3 10:6 11:3 12:4 13:1 15:5 16:2 20:5 23:1 24:2 42:2 43:1 44:2 102:1 253:0
0 4:13 5:4 9:3 10:11 11:3 15:3 16:1 20:3 253:0
0 1:12 2:12 4:5 6:8 10:2 23:4 24:6 253:0
0 1:12 2:12 4:5 5:3 6:4 9:5 10:2 11:4 12:2 13:1 23:2 24:3 26:2 27:1 28:1 29:2 253:0
0 1:6 2:6 4:6 5:2 9:3 10:6 11:1 23:1 28:2 35:1 58:1 59:1 60:1 61:2 62:3 63:2 64:2 65:1 92:4 93:1 253:0
0 1:6 2:6 4:9 6:6 10:8 14:2 15:1 67:2 68:1 253:0
0 1:6 2:6 4:10 5:4 6:2 9:9 10:7 11:9 12:2 13:1 15:2 16:1 20:2 22:1 23:3 24:3 28:1 29:4 41:1 62:2 92:2 93:1 100:1 109:1 253:0
0 1:12 2:12 4:4 5:6 9:9 10:1 11:9 23:1 28:2 29:4 35:1 62:2 92:4 93:1 253:0
0 1:20 2:21 3:3 4:7 5:5 6:7 7:2 8:1 9:7 10:3 11:4 23:2 24:2 25:1 28:2 29:2 35:1 38:1 40:1 66:2 72:2 253:0
0 1:12 2:12 4:5 5:5 6:2 9:6 10:1 11:6 12:2 13:1 15:4 16:2 20:2 22:2 23:1 26:2 27:1 29:2 54:2 55:1 253:0
0 1:12 2:12 4:1 5:2 9:6 11:6 23:1 24:1 28:1 29:4 62:2 92:4 93:1 253:0
0 1:6 2:6 4:1 5:1 9:2 11:1 14:2 15:1 23:1 24:1 27:3 28:1 29:2 76:3 104:3 253:0
0 1:12 2:12 4:4 6:4 9:2 10:3 11:1 15:2 20:2 22:2 23:2 24:2 29:4 253:0
0 1:6 2:6 4:12 5:4 6:2 9:3 10:11 11:3 15:4 16:2 20:5 22:2 23:2 24:2 253:0
0 1:10 2:12 3:3 4:4 5:2 6:5 7:2 8:1 9:3 10:1 11:3 25:1 42:3 43:1 44:2 253:0
0 1:6 2:6 4:16 6:4 10:24 14:2 15:1 23:1 24:2 253:0
0 1:12 2:12 3:4 4:6 5:4 6:2 7:4 8:2 9:5 10:1 11:3 14:2 15:2 16:1 20:1 25:2 29:2 37:1 66:2 74:1 97:1 115:1 116:1 117:1 253:0
0 1:10 2:9 3:2 4:3 6:4 7:2 8:1 10:1 12:2 13:1 14:4 15:4 16:2 23:1 24:2 253:0
0 1:6 2:6 4:5 5:3 6:2 9:2 10:3 11:1 12:2 13:1 23:1 24:1 28:1 33:2 34:1 253:0
0 1:6 2:6 4:11 5:7 6:2 9:5 10:8 11:4 15:1 20:1 22:1 23:4 24:4 28:2 62:2 93:1 107:2 109:1 253:0
0 1:6 2:6 4:9 5:3 6:4 9:3 10:12 11:3 14:2 15:1 253:0
0 1:1 3:2 4:8 5:2 6:1 7:4 8:2 9:2 10:7 15:1 20:1 22:1 23:1 24:1 25:1 37:1 66:2 253:0
0 1:7 2:6 3:2 4:5 5:1 7:4 8:2 9:1 10:7 14:2 15:2 16:1 20:1 23:1 24:2 26:2 27:1 32:1 37:1 66:2 253:0
0 4:3 10:2 15:2 20:3 22:1 23:1 24:1 253:0
0 1:5 2:3 3:8 4:2 5:4 7:9 8:5 9:5 10:1 11:4 29:1 30:2 31:1 36:1 37:3 94:2 95:1 253:0
0 1:6 2:6 4:12 5:3 6:4 9:3 10:13 11:3 253:0
0 1:12 2:12 4:6 5:5 6:6 9:6 10:2 11:6 14:8 15:8 16:4 23:1 24:1 28:1 253:0
0 1:12 2:12 4:7 5:2 6:4 9:3 10:7 11:3 15:3 16:1 20:5 22:1 23:1 24:1 253:0
0 1:6 2:6 4:8 6:2 7:2 10:5 12:4 13:1 14:4 15:4 16:2 20:2 22:1 23:1 24:1 25:2 43:1 44:2 45:2 94:2 95:1 102:2 253:0
0 1:15 2:17 3:3 4:1 6:2 7:5 8:2 25:2 26:2 27:1 37:2 94:3 95:1 253:0
0 1:6 2:6 4:5 5:4 9:4 10:2 11:2 14:2 15:2 16:1 20:1 23:1 24:1 28:1 29:2 253:0
0 1:6 2:6 4:5 6:2 10:2 12:4 13:1 14:4 15:3 16:1 20:1 22:1 23:1 24:1 62:1 63:2 64:2 65:1 83:1 84:1 85:1 86:2 107:1 253:0
0 4:3 5:1 9:1 10:2 15:2 20:3 22:1 23:1 24:1 253:0
0 4:15 10:12 15:4 16:2 20:4 22:2 23:2 24:2 253:0
0 1:7 2:6 3:2 4:5 5:1 6:6 7:4 8:2 9:1 10:2 12:2 13:1 15:1 20:1 22:1 23:1 24:1 37:1 41:1 66:2 253:0
0 1:12 2:12 4:10 5:8 6:6 9:5 10:6 11:4 14:4 15:6 16:2 20:2 22:2 23:3 24:3 28:1 253:0
0 1:11 2:11 3:5 4:4 5:3 7:4 8:1 9:4 10:1 11:1 12:4 13:2 14:2 15:2 16:1 20:2 23:1 24:1 28:1 29:1 33:2 34:1 36:1 41:2 66:1 94:2 95:1 96:1 253:0
0 1:3 2:2 4:8 5:4 6:1 9:2 10:8 11:1 23:1 24:2 42:2 43:1 44:2 102:1 253:0
0 1:6 2:6 4:5 6:2 10:4 15:1 20:2 253:0
0 1:8 2:7 3:1 4:4 5:1 6:7 7:1 9:2 11:1 17:1 19:1 21:1 23:1 24:1 28:1 29:1 36:1 69:1 70:1 71:1 253:0
0 1:12 2:12 4:5 6:4 10:2 12:4 13:1 15:2 16:1 20:2 22:1 23:1 24:1 90:1 91:1 253:0
0 1:6 2:6 4:4 6:2 9:1 10:3 15:2 16:1 20:2 22:1 23:1 24:1 29:2 253:0
0 1:6 2:6 4:3 5:3 6:2 9:3 11:3 15:1 20:1 23:1 24:1 26:4 27:4 28:1 76:2 104:1 253:0
0 1:6 2:6 4:6 5:6 9:9 10:6 11:9 23:1 26:2 27:1 28:2 29:2 35:1 253:0
0 1:6 2:6 4:10 5:6 6:2 9:6 10:5 11:4 14:2 15:6 16:3 20:5 23:1 24:1 26:2 27:1 28:1 29:2 55:1 253:0
0 1:6 2:6 4:8 6:4 10:6 12:3 13:1 15:1 20:1 22:1 23:2 24:3 253:0
0 1:12 2:12 4:2 6:4 9:2 11:1 15:1 20:1 22:1 23:1 24:1 29:4 34:3 62:2 92:4 93:1 112:3 113:3 253:0
0 1:12 2:12 4:1 6:2 9:8 11:7 14:4 15:2 16:1 23:3 28:6 29:2 34:3 35:3 62:2 63:2 64:4 65:1 92:2 93:1 113:3 180:3 253:0
0 1:6 2:6 4:16 5:4 6:2 9:3 10:16 11:3 15:1 20:1 22:1 23:2 24:2 28:1 46:2 47:2 48:2 49:2 50:1 51:1 52:1 150:1 253:0
0 1:10 2:9 3:2 4:4 5:2 6:8 7:2 8:1 9:2 11:1 23:1 24:1 28:1 253:0
0 1:9 2:8 3:2 4:2 5:1 6:4 7:2 8:1 9:4 23:1 24:1 28:1 29:2 35:1 38:1 39:2 40:1 62:2 63:2 64:4 65:1 66:2 92:2 93:1 253:0
0 1:1 3:1 4:6 5:4 7:1 9:3 10:5 11:1 17:1 19:1 29:1 70:1 71:1 87:1 88:1 94:1 95:1 114:2 153:1 169:1 170:1 253:0
0 1:6 2:6 4:5 5:4 9:4 10:2 11:2 14:2 15:2 16:1 20:1 22:1 23:3 24:3 28:2 29:2 62:2 93:1 107:1 253:0
0 1:8 2:7 3:2 4:9 5:4 6:5 7:2 9:4 10:4 11:3 12:3 13:1 15:1 20:1 23:1 24:2 25:1 33:2 34:1 66:1 94:2 95:1 96:1 253:0
0 1:8 2:7 3:1 4:10 5:4 6:4 7:1 9:5 10:7 11:2 17:1 19:1 21:1 23:2 24:1 25:1 28:3 35:1 58:1 59:1 60:1 61:2 62:1 63:2 64:2 65:1 69:1 70:1 71:1 92:2 253:0
0 4:15 5:9 9:5 10:14 11:4 15:2 20:2 22:2 23:3 24:3 28:1 253:0
0 4:7 5:3 9:3 10:4 11:3 15:6 16:1 20:10 27:2 55:1 76:2 253:0
0 1:6 2:6 4:9 5:6 6:2 9:6 10:1 11:6 12:3 13:1 14:6 15:10 16:5 20:7 22:1 23:1 24:1 253:0
0 1:3 2:2 4:7 5:6 6:1 9:9 10:3 11:9 15:2 16:1 20:1 22:1 23:2 24:2 28:1 32:1 42:2 43:1 44:2 102:1 253:0
0 1:6 2:6 4:9 5:1 6:6 9:2 10:8 11:1 15:1 20:1 22:1 23:3 24:4 28:1 29:2 253:0
0 4:8 5:1 9:2 10:10 11:1 12:2 13:1 23:2 24:3 28:1 41:1 253:0
0 1:12 2:12 4:10 5:2 6:6 9:3 10:12 11:3 253:0
0 4:22 10:33 12:6 13:2 15:3 20:6 22:1 23:2 24:3 253:0
0 1:10 2:9 3:2 4:4 5:6 6:3 7:2 8:1 9:6 11:6 23:1 24:1 25:1 28:1 253:0
0 1:1 3:1 4:5 5:2 6:2 7:2 8:1 9:2 10:4 11:1 25:1 42:1 43:1 44:2 45:1 102:1 253:0
0 1:13 2:12 3:2 4:3 6:6 7:4 8:2 14:4 15:4 16:2 25:4 34:3 37:1 112:3 113:3 253:0
0 1:4 2:3 3:2 4:3 5:1 6:3 7:2 8:1 9:2 11:1 12:2 13:1 23:1 24:1 25:1 28:1 29:2 253:0
0 1:7 2:5 3:5 4:11 5:9 6:1 7:6 8:3 9:10 10:5 11:7 12:6 13:3 17:2 18:1 19:2 21:1 23:1 24:1 28:1 36:2 37:2 38:1 39:1 40:1 41:2 66:2 72:1 253:0
0 1:12 2:12 4:8 5:1 6:6 9:2 10:8 11:1 15:2 16:1 20:6 253:0
0 4:11 5:7 9:7 10:9 11:6 12:2 13:1 15:2 20:3 22:1 23:2 24:2 28:1 38:1 39:1 40:1 41:1 62:4 93:2 100:1 106:1 107:4 149:1 253:0
0 1:17 2:17 3:2 4:4 5:5 6:4 7:2 8:1 9:6 11:6 17:3 18:1 19:2 25:2 29:2 33:2 34:1 253:0
0 1:12 2:12 4:8 5:5 6:6 9:6 10:4 11:6 14:8 15:8 16:4 23:1 24:1 28:1 253:0
0 4:3 5:3 9:2 10:2 15:1 20:1 22:1 23:2 24:2 28:1 253:0
0 1:5 2:4 3:4 4:6 6:1 7:5 8:4 10:5 15:1 20:1 22:1 23:1 24:1 25:1 37:1 253:0
0 1:6 2:6 4:3 5:2 6:2 9:2 10:2 11:1 253:0
0 4:21 10:32 12:3 13:1 23:2 24:4 253:0
0 1:12 2:12 4:4 6:4 9:3 10:3 11:1 23:1 26:2 27:1 28:2 29:2 35:1 58:1 59:1 60:1 61:2 62:1 63:2 64:2 65:1 92:2 253:0
0 1:12 2:12 4:3 5:1 6:4 9:4 10:1 11:6 15:2 16:1 20:3 253:0
0 1:6 2:6 4:10 6:2 10:11 15:2 16:1 20:2 22:1 23:1 24:1 62:3 93:3 107:1 253:0
0 4:8 5:2 9:2 10:9 11:1 15:3 20:4 22:1 23:2 24:2 28:1 253:0
0 1:13 2:12 3:1 4:3 5:1 6:5 7:2 8:1 9:2 10:1 11:1 25:1 36:1 42:1 43:1 44:2 45:1 142:1 253:0
0 1:10 2:10 3:4 4:2 5:1 6:2 7:6 8:3 9:2 11:1 25:2 29:1 36:1 37:2 253:0
0 1:8 2:7 3:2 4:3 6:5 7:4 8:2 9:2 10:1 25:1 26:4 27:2 29:1 36:3 37:1 253:0
0 1:12 2:12 4:9 5:1 6:4 9:3 10:8 11:3 15:4 16:2 20:6 22:1 23:1 24:1 253:0
0 1:6 2:6 4:11 5:6 6:2 9:4 10:10 11:2 15:2 20:2 22:2 23:3 24:3 28:1 40:1 62:2 72:1 88:1 89:1 93:1 100:1 107:2 114:2 149:1 253:0
0 4:3 5:2 9:1 10:2 62:2 63:2 64:2 65:1 84:1 85:1 86:2 107:2 253:0
0 1:7 2:8 3:3 4:3 5:5 7:4 8:2 9:7 11:6 12:1 13:1 14:4 15:4 16:2 29:1 36:3 37:1 253:0
0 1:12 2:12 4:9 5:7 6:2 9:8 10:3 11:7 12:6 13:2 14:4 15:5 16:2 20:3 23:1 24:1 28:1 29:2 41:1 90:1 91:1 253:0
0 1:6 2:6 4:4 5:7 9:9 11:9 15:1 20:1 23:2 24:1 26:2 27:1 28:2 29:2 62:2 92:2 93:1 100:1 109:1 253:0
0 1:6 2:6 4:2 5:2 6:2 9:4 11:2 23:1 26:2 27:1 28:2 35:1 253:0
0 1:3 2:2 4:8 5:4 6:2 9:10 10:3 11:6 12:6 13:3 17:2 18:1 19:2 21:2 23:2 24:2 28:2 35:1 38:1 39:2 40:1 41:2 62:2 93:1 107:2 253:0
0 1:12 2:12 4:3 5:1 6:4 9:4 11:2 23:2 24:1 26:2 27:1 28:3 29:2 35:1 40:1 62:2 72:1 88:1 89:1 92:4 93:1 114:2 253:0
0 1:7 2:6 3:2 4:2 5:1 6:2 7:4 8:2 9:2 15:1 20:1 25:2 29:1 33:2 34:1 36:1 37:1 66:2 74:1 97:1 115:1 116:1 117:1 253:0
0 1:6 2:6 4:5 5:4 6:2 9:4 10:2 11:3 15:1 20:1 22:1 23:1 24:1 27:2 29:2 76:2 253:0
0 1:6 2:6 4:3 5:1 6:4 9:2 10:1 11:1 15:2 16:1 20:2 34:3 112:3 113:3 253:0
0 1:6 2:6 4:2 5:2 6:2 9:2 11:1 14:2 15:1 23:2 24:2 28:2 253:0
0 4:24 10:34 12:5 13:2 15:5 16:2 20:10 23:2 24:4 27:2 34:1 55:1 76:5 112:2 253:0
0 1:12 2:12 4:2 5:2 6:2 9:3 10:1 11:1 26:2 27:1 29:2 35:1 58:1 59:2 60:2 61:4 62:2 63:4 64:4 65:2 92:4 253:0
0 1:6 2:6 4:3 5:4 6:2 9:5 11:2 15:2 16:1 20:1 22:1 23:1 28:1 32:1 50:1 77:5 78:3 79:3 81:3 253:0
0 1:8 2:7 3:1 4:2 6:3 7:1 9:2 17:1 19:1 21:1 29:3 36:1 58:1 59:1 60:1 61:2 62:1 63:2 64:2 65:1 69:1 70:1 71:1 92:2 253:0
0 1:13 2:12 3:2 4:2 5:1 6:4 7:4 8:2 9:1 12:1 13:1 14:2 15:2 16:1 20:1 26:2 27:1 37:1 41:1 66:2 253:0
0 1:12 2:12 4:9 5:1 6:6 9:2 10:8 11:1 12:3 13:1 23:2 24:4 26:2 27:1 29:2 34:3 41:1 74:1 97:2 112:3 113:3 253:0
0 1:12 2:12 4:7 6:4 10:6 12:3 13:1 14:2 15:6 16:3 20:6 22:1 23:1 24:1 54:1 55:1 253:0
0 1:8 2:7 3:2 4:3 5:4 6:4 7:4 8:2 9:7 11:6 26:6 27:3 29:1 36:3 37:1 253:0
0 1:12 2:12 4:2 5:2 6:2 9:6 11:4 12:2 13:1 14:2 15:1 23:1 28:2 29:4 35:1 41:1 74:1 97:1 115:1 116:1 117:1 253:0
0 1:6 2:6 4:10 5:7 6:4 9:6 10:4 11:4 15:4 16:2 20:5 22:1 23:3 24:3 28:2 39:1 40:1 72:1 73:1 74:1 253:0
0 4:6 5:4 9:2 10:5 11:1 253:0
0 1:13 2:14 3:1 4:10 5:3 6:3 7:1 9:3 10:8 11:3 12:2 13:1 14:4 15:5 16:2 17:2 19:1 20:2 23:1 24:2 25:1 33:2 34:1 54:1 69:1 70:1 71:1 253:0
0 1:7 2:6 3:6 4:1 6:1 7:4 8:2 9:1 15:2 16:1 22:1 23:1 25:1 28:1 32:1 40:1 72:1 74:2 88:1 89:1 105:4 114:1 253:0
0 4:1 5:1 9:4 11:2 15:1 20:1 23:1 27:3 28:2 32:1 35:1 76:3 104:3 253:0
0 1:16 2:12 3:8 4:4 5:2 6:9 7:8 8:4 9:2 11:1 14:3 15:4 16:2 23:1 24:1 25:3 26:2 27:1 28:1 103:1 253:0
0 1:6 2:6 4:7 5:3 6:2 9:3 10:4 11:3 15:2 16:1 20:2 22:1 23:1 24:1 253:0
0 1:6 2:6 4:5 5:2 6:2 9:7 10:7 11:5 14:2 15:3 16:1 20:1 22:1 23:1 28:1 29:2 32:2 74:1 75:1 97:2 253:0
0 1:6 2:6 4:5 5:2 6:2 9:2 10:2 11:1 58:2 59:1 60:1 61:2 62:1 63:2 64:2 65:1 92:2 253:0
0 4:2 10:1 15:2 20:3 62:1 107:1 253:0
0 1:12 2:12 4:6 5:3 6:4 9:5 10:7 11:4 23:4 24:3 28:5 35:1 253:0
0 1:8 2:6 3:4 4:8 5:2 6:4 7:4 8:2 9:5 10:5 11:2 12:2 13:1 14:2 15:2 16:1 23:1 24:1 25:2 28:1 35:1 38:1 39:2 40:1 41:1 253:0
0 1:12 2:12 4:5 5:6 6:4 9:6 10:1 11:6 15:3 16:1 20:4 23:1 24:1 26:2 27:1 28:1 29:2 32:1 33:2 34:1 253:0
0 1:12 2:12 4:10 5:3 6:6 9:2 10:8 11:1 15:2 20:2 22:2 23:3 24:3 28:1 253:0
0 1:12 2:12 4:8 5:6 6:4 9:7 10:7 11:6 23:1 24:1 28:1 29:2 253:0
0 4:10 5:4 9:3 10:11 11:3 15:4 16:2 20:2 22:2 23:3 24:3 28:1 55:1 62:2 63:2 64:4 65:1 93:1 100:1 107:4 253:0
0 1:6 2:6 4:5 5:4 6:2 9:2 10:4 11:1 14:2 15:2 20:2 26:2 27:1 253:0
0 4:4 5:1 9:1 10:3 15:1 20:1 22:1 23:1 24:1 253:0
0 1:4 2:3 3:2 4:6 6:2 7:2 8:1 9:1 10:6 38:1 40:1 62:3 63:1 64:2 72:1 93:1 107:5 149:1 253:0
0 1:6 2:6 4:2 5:1 6:2 9:2 11:1 15:1 20:1 22:1 23:2 24:2 28:1 29:2 253:0
0 1:6 2:6 4:5 5:5 6:2 9:5 10:3 11:2 14:2 15:4 16:2 20:2 23:1 24:1 26:2 27:1 28:1 29:2 253:0
0 1:8 2:9 3:3 4:8 6:3 7:2 8:1 10:7 15:3 16:1 20:5 22:1 23:1 24:1 25:1 253:0
0 1:6 2:6 4:2 5:2 9:3 11:1 12:1 13:1 26:2 27:1 29:2 35:1 58:1 59:2 60:2 61:4 62:4 63:4 64:4 65:2 92:4 93:1 107:2 253:0
0 1:6 2:6 4:4 5:3 6:2 9:2 10:2 11:1 15:2 16:1 20:3 23:1 24:1 28:1 253:0
0 1:6 2:6 4:8 5:3 6:2 9:3 10:5 11:3 12:2 13:1 14:6 15:6 16:3 23:1 24:1 28:1 253:0
0 4:3 5:2 9:7 10:1 11:6 12:3 13:2 23:2 24:1 28:3 35:2 41:2 253:0
0 1:6 2:6 4:2 6:2 9:3 10:1 11:1 14:4 15:4 16:2 23:1 28:2 29:2 35:1 38:1 40:1 72:2 253:0
0 1:12 2:12 4:5 5:3 6:4 9:3 10:1 11:3 15:4 16:2 20:5 26:2 27:1 253:0
0 4:8 9:1 10:9 15:2 16:1 20:3 22:1 23:1 28:1 32:1 118:1 119:1 253:0
0 1:9 2:8 3:2 4:4 5:6 6:3 7:2 8:1 9:7 10:1 11:6 25:1 29:2 66:2 253:0
0 4:9 5:1 9:3 10:10 11:1 15:4 16:2 20:2 22:2 23:2 28:2 32:2 253:0
0 4:1 5:1 9:3 11:1 12:1 13:1 35:1 98:1 99:2 253:0
0 1:12 2:12 4:5 5:2 6:6 9:3 10:3 11:3 15:1 20:1 22:1 23:2 24:2 28:1 29:2 253:0
0 1:1 3:2 4:6 5:1 6:1 7:4 8:2 9:5 10:8 11:1 12:2 13:1 15:2 20:2 23:1 24:1 25:1 28:1 29:1 35:1 36:1 37:1 38:1 39:2 40:1 41:1 66:2 253:0
0 4:14 5:8 9:5 10:11 11:2 15:2 20:2 22:2 23:6 24:8 28:2 40:2 72:2 128:2 208:2 253:0
0 1:8 2:6 3:4 4:9 5:1 6:2 7:4 8:2 9:2 10:11 11:1 23:2 24:3 26:2 27:1 28:1 29:1 36:1 62:2 63:2 64:4 65:1 92:2 93:1 253:0
0 1:10 2:9 3:2 4:6 5:8 6:2 7:2 8:1 9:8 10:2 11:7 23:1 24:1 28:1 29:2 33:2 34:1 253:0
0 1:6 2:6 4:11 5:4 6:4 9:3 10:11 11:3 14:4 15:5 16:2 20:2 253:0
0 4:3 5:3 9:7 11:6 12:2 13:2 23:2 24:1 28:3 35:2 41:2 253:0
0 1:13 2:14 3:3 4:3 5:1 6:5 7:2 9:1 15:1 20:1 22:1 23:1 24:1 25:1 26:2 27:1 66:1 94:2 95:1 96:1 253:0
0 1:8 2:7 3:3 4:4 6:5 7:7 8:3 9:1 10:1 15:2 16:1 20:2 25:1 36:2 37:3 94:3 95:1 253:0
0 1:6 2:6 4:24 6:2 10:35 12:5 13:2 15:4 16:1 20:7 23:2 24:4 34:1 112:3 253:0
0 1:12 2:12 4:9 5:1 6:8 9:2 10:9 11:1 12:3 13:1 253:0
0 1:12 2:12 4:2 5:4 9:8 11:8 23:2 24:2 28:2 29:4 253:0
0 1:6 2:6 4:1 5:1 6:2 9:2 23:1 24:1 26:2 27:1 28:1 29:2 74:1 97:1 115:1 116:1 117:1 253:0
0 1:6 2:6 4:4 5:3 6:2 9:3 10:2 11:3 15:1 20:2 253:0
0 1:12 2:12 4:7 5:6 9:10 10:4 11:5 12:5 13:2 23:2 24:2 28:2 29:4 41:3 88:2 114:8 253:0
0 1:6 2:6 4:9 5:2 6:2 9:3 10:12 11:3 14:2 15:1 253:0
0 1:4 2:3 3:2 4:15 5:8 6:2 7:2 8:1 9:7 10:14 11:5 15:1 20:1 22:1 23:3 24:3 28:2 253:0
0 1:7 2:6 3:6 4:2 6:2 7:4 8:2 15:1 20:1 25:2 74:2 105:4 253:0
0 1:12 2:12 4:2 6:4 9:1 10:1 14:2 15:2 16:1 22:1 23:1 28:1 32:1 253:0
0 1:12 2:12 3:4 4:4 5:1 6:2 7:4 8:2 9:1 10:2 15:4 16:2 20:7 25:2 37:1 55:1 66:2 253:0
0 1:12 2:12 4:10 5:8 6:4 9:9 10:4 11:9 14:2 15:2 16:1 20:2 23:1 24:1 28:1 29:2 253:0
0 1:10 2:9 3:2 4:9 5:9 6:2 7:2 8:1 9:11 10:4 11:10 23:2 24:2 28:2 29:5 36:1 253:0
0 1:8 2:7 3:2 4:3 5:1 6:4 7:4 8:2 9:4 11:2 15:1 20:1 22:1 23:1 24:1 26:1 27:1 29:3 36:3 37:1 132:1 253:0
0 1:7 2:6 3:1 4:2 5:3 6:2 7:2 8:1 9:6 11:6 14:2 15:2 16:1 36:1 42:1 43:1 44:2 45:1 142:1 253:0
0 1:6 2:6 4:4 6:4 10:3 14:2 15:1 26:2 27:1 253:0
0 1:13 2:12 3:6 4:3 5:2 6:4 7:8 8:4 9:1 10:1 25:2 37:2 66:2 253:0
0 1:1 3:2 4:3 5:2 6:1 7:4 8:2 9:5 10:1 11:4 23:2 24:1 25:1 28:3 29:1 35:1 36:1 37:1 253:0
0 1:6 2:6 4:5 5:3 7:2 9:5 10:1 11:4 12:8 13:4 14:2 15:2 16:1 20:1 23:2 24:2 28:2 36:2 37:1 41:2 54:1 94:2 95:3 144:2 253:0
0 1:9 2:8 3:4 4:2 6:3 7:4 8:2 9:2 10:1 11:1 15:2 16:1 22:1 23:2 24:2 28:1 32:1 36:2 37:1 42:2 43:1 44:2 102:1 253:0
0 1:6 2:6 4:6 5:3 6:2 9:3 10:5 11:1 14:2 15:2 16:1 20:1 38:1 39:1 40:1 72:1 253:0
0 1:12 2:12 4:3 5:2 9:6 10:1 11:6 15:2 16:1 20:1 22:1 23:2 24:1 26:2 27:1 28:2 29:6 32:1 253:0
0 1:12 2:12 3:4 4:4 6:4 7:4 8:2 9:1 10:2 36:2 37:1 40:1 59:1 60:1 61:2 62:1 63:2 64:2 65:1 72:2 73:1 74:1 107:2 122:2 253:0
0 1:16 2:15 3:2 4:4 6:8 7:2 8:1 9:1 14:2 15:2 20:1 22:1 23:1 24:1 29:1 36:1 58:1 59:1 60:1 61:2 62:1 63:2 64:2 65:1 92:2 118:2 119:1 253:0
0 1:12 2:12 4:6 5:2 6:2 9:3 10:7 11:3 14:4 15:4 16:2 20:1 253:0
0 1:6 2:6 4:4 5:1 9:2 10:3 11:1 14:2 15:2 16:1 20:3 23:1 24:1 28:1 29:2 253:0
0 1:6 2:6 4:10 5:6 6:2 9:8 10:8 11:7 12:2 13:1 14:2 15:3 16:1 20:1 22:1 23:2 24:3 29:4 33:2 34:1 41:1 253:0
0 1:12 2:12 4:5 6:6 10:2 12:2 13:1 14:2 15:3 16:1 20:2 22:1 23:2 24:3 54:1 253:0
0 1:6 2:6 4:17 6:2 10:18 12:2 13:1 15:4 20:7 22:1 23:1 24:1 253:0
0 1:6 2:6 4:3 6:2 10:1 14:2 15:4 16:1 20:4 253:0
0 1:6 2:6 4:3 5:2 6:2 9:3 10:2 11:3 15:1 20:2 253:0
0 1:14 2:13 3:2 4:2 6:4 7:2 9:1 14:2 15:2 16:1 25:2 29:2 33:2 34:3 59:1 60:1 61:2 62:1 63:2 64:2 65:1 66:1 92:2 94:2 95:1 96:1 112:2 113:1 253:0
0 4:19 10:20 12:4 13:2 15:4 16:1 20:6 22:1 23:2 24:3 253:0
0 1:7 2:6 3:1 4:6 6:4 7:2 8:1 10:3 15:3 16:1 17:1 18:1 19:2 20:5 21:2 22:1 23:1 24:1 25:2 26:2 27:1 136:1 253:0
0 4:4 5:4 9:2 10:2 15:2 20:2 22:2 23:2 24:2 62:2 107:2 139:2 140:1 253:0
0 4:2 10:1 15:2 20:3 22:1 23:1 24:1 253:0
0 1:10 2:9 3:2 4:6 5:3 6:3 7:2 8:1 9:4 10:8 11:3 23:1 24:1 25:1 28:1 253:0
0 63:2 65:1 84:2 86:4 137:1 253:0
0 1:1 3:2 4:2 5:2 7:4 8:2 9:4 11:1 15:2 16:1 25:2 29:1 32:1 36:1 37:1 66:2 74:1 97:1 98:1 99:1 115:1 116:1 117:1 187:1 253:0
0 1:6 2:6 4:3 5:3 9:3 11:3 14:4 15:4 16:2 20:1 253:0
0 4:2 15:2 16:1 20:2 22:1 23:1 24:1 253:0
0 4:22 10:34 12:3 13:1 15:2 20:5 253:0
0 1:12 2:10 3:8 4:7 5:4 6:5 7:10 8:5 9:4 10:5 11:1 15:1 20:1 23:2 24:3 25:1 26:2 27:1 28:1 29:2 36:2 37:2 66:2 253:0
0 1:12 2:12 4:5 5:2 6:6 9:4 10:2 11:3 23:1 28:2 29:2 33:2 34:1 35:1 38:1 40:1 72:2 253:0
0 1:12 2:12 4:7 6:10 10:4 14:4 15:3 16:1 47:1 48:1 49:2 50:1 51:2 52:2 53:1 151:1 253:0
0 1:10 2:9 3:2 4:5 5:5 6:2 7:2 8:1 9:6 10:1 11:6 14:4 15:6 16:3 20:4 29:1 36:1 253:0
0 4:22 10:35 15:1 20:2 62:2 93:1 107:4 253:0
0 1:1 3:1 4:7 5:2 6:1 7:2 8:1 9:3 10:5 11:3 17:1 18:1 19:2 23:1 24:1 25:1 28:1 36:1 136:1 153:1 253:0
0 4:12 5:4 9:8 10:18 11:12 253:0
0 1:1 3:2 4:3 7:4 8:2 9:2 10:3 25:2 29:1 36:1 37:1 66:2 74:1 97:1 115:1 116:1 117:1 253:0
0 4:5 5:4 9:6 10:3 11:3 12:1 13:1 15:5 16:1 20:8 23:1 28:2 32:2 35:1 38:1 39:1 40:1 41:1 72:1 127:1 128:2 216:1 253:0
0 1:5 2:5 3:4 4:7 5:2 6:3 7:4 8:1 9:3 10:2 11:1 15:2 16:1 20:2 22:1 23:1 24:1 25:1 29:2 37:1 66:1 94:2 95:1 96:1 253:0
0 4:4 5:2 9:1 10:3 15:2 20:3 22:1 23:1 24:1 27:1 40:1 72:1 73:1 74:1 75:1 76:1 205:1 253:0
0 1:6 2:6 4:5 5:3 9:3 10:4 11:3 14:2 15:3 16:1 20:4 22:1 23:2 24:2 26:2 27:1 28:1 62:2 93:1 100:1 107:1 253:0
0 1:17 2:20 4:9 6:14 10:8 14:8 15:4 23:2 24:4 253:0
0 1:9 2:8 4:4 5:5 6:3 9:9 11:7 29:5 33:2 34:1 38:1 39:1 40:1 42:2 43:1 44:2 72:1 102:1 142:1 253:0
0 1:1 3:2 4:3 5:2 6:1 7:4 8:2 9:7 10:1 11:6 15:1 20:2 23:2 24:1 25:1 28:3 29:1 35:1 36:1 37:1 66:2 253:0
0 1:6 2:6 4:5 5:3 9:7 10:3 11:5 14:2 15:4 16:2 20:5 23:2 24:1 26:2 27:1 28:3 35:2 253:0
0 1:7 2:6 3:2 4:10 5:5 6:3 7:4 8:2 9:10 10:7 11:9 15:2 16:1 20:3 22:1 23:3 24:2 25:1 28:3 29:1 35:1 36:1 37:1 66:2 253:0
0 1:9 2:8 3:2 4:4 5:1 6:1 7:2 8:1 9:3 10:4 11:1 23:2 24:3 25:1 28:1 29:2 66:2 90:1 91:1 253:0
0 1:12 2:12 4:6 5:4 6:6 9:4 10:3 11:3 14:4 15:4 16:2 29:2 253:0
0 1:6 2:6 4:11 6:8 10:7 12:2 13:1 14:4 15:4 16:1 20:2 22:1 23:2 24:3 54:1 253:0
0 1:12 2:12 4:8 5:4 6:2 9:3 10:7 11:3 14:2 15:3 16:1 20:5 23:1 24:1 28:1 62:2 63:2 64:4 65:1 92:4 93:1 253:0
0 4:23 10:37 15:1 20:2 23:1 24:2 253:0
0 4:5 10:4 15:6 16:1 20:10 22:1 23:1 24:1 253:0
0 1:6 2:6 3:4 4:6 5:5 6:4 7:4 8:2 9:6 10:2 11:4 30:4 31:2 36:2 37:1 66:2 253:0
0 1:12 2:12 4:9 5:4 6:4 9:3 10:6 11:3 15:4 16:2 20:5 22:1 23:1 24:1 253:0
0 1:12 2:12 4:8 5:3 6:4 9:3 10:7 11:3 15:4 16:2 20:4 22:1 23:1 24:1 253:0
0 1:8 2:9 4:14 5:7 6:2 9:6 10:13 11:6 15:2 16:1 17:3 18:1 19:2 20:4 23:1 24:1 28:1 253:0
0 1:6 2:6 4:6 5:3 6:2 9:3 10:3 11:3 12:3 13:1 15:1 20:1 22:1 23:1 24:1 26:2 27:1 62:1 106:1 107:1 253:0
0 1:6 2:6 4:1 5:2 9:6 11:3 23:1 24:1 28:1 29:4 62:2 74:1 93:1 97:1 98:1 99:1 100:2 101:1 107:1 115:1 116:1 117:1 127:2 128:1 253:0
0 1:6 2:6 4:5 6:2 9:1 10:3 12:3 13:1 14:4 15:2 23:2 24:4 29:2 74:1 97:1 115:1 116:1 117:1 253:0
0 1:6 2:6 7:2 9:2 29:2 36:2 37:1 66:1 94:2 95:3 96:1 144:2 253:0
0 1:6 2:6 4:11 5:1 6:6 9:2 10:14 11:1 14:2 15:1 23:1 24:1 28:1 62:2 93:1 100:1 107:2 253:0
0 1:6 2:6 4:7 6:2 9:2 10:3 11:1 12:2 13:1 14:4 15:8 16:4 20:7 22:1 23:2 24:3 26:2 27:1 29:2 41:1 253:0
0 1:9 2:10 3:3 4:11 5:4 6:2 7:2 8:1 9:3 10:11 11:3 14:2 15:3 16:1 20:3 253:0
0 1:10 2:9 3:2 4:11 5:5 6:3 7:2 8:1 9:3 10:10 11:3 15:1 20:3 25:1 253:0
0 1:12 2:12 4:5 6:6 9:3 10:3 11:3 14:2 15:2 16:1 29:2 32:1 98:1 99:1 187:1 253:0
0 1:6 2:6 4:3 6:2 9:1 10:1 15:2 16:1 20:2 22:1 23:1 24:1 29:2 253:0
0 1:4 2:3 3:2 4:2 6:1 7:2 8:1 10:1 15:2 16:1 20:1 25:1 253:0
0 1:6 2:6 4:6 5:3 6:2 9:2 10:2 11:1 12:2 13:1 14:2 15:5 16:2 20:4 22:1 23:1 24:1 253:0
0 4:2 5:2 7:6 8:3 9:5 11:3 12:2 13:2 36:6 37:3 74:1 97:3 253:0
0 1:9 2:10 3:3 4:8 5:1 6:3 7:2 8:1 9:2 10:6 11:1 25:1 29:2 253:0
0 1:6 2:6 4:3 6:2 10:1 12:2 13:1 14:6 15:7 16:3 20:1 22:1 23:2 24:3 253:0
0 1:6 2:6 4:7 5:3 6:2 9:2 10:6 11:1 14:2 15:2 20:2 30:4 31:2 253:0
0 1:18 2:18 4:8 6:6 10:4 15:11 16:5 20:14 55:1 253:0
0 1:12 2:12 3:5 4:5 5:3 6:5 7:4 8:2 9:3 10:2 11:3 25:1 33:2 34:1 253:0
0 1:6 2:6 4:5 5:5 9:5 10:1 11:2 12:2 13:1 14:2 15:3 16:1 20:3 23:1 24:1 26:2 27:2 28:1 40:1 41:1 72:1 76:1 88:1 89:1 114:1 133:1 253:0
0 1:6 2:6 4:8 5:1 6:4 9:2 10:5 15:1 20:1 29:2 40:1 72:2 73:1 74:1 75:1 253:0
0 1:12 2:12 4:10 5:3 6:4 9:3 10:10 11:3 15:3 16:1 20:4 22:1 23:1 24:1 253:0
0 1:6 2:6 3:4 4:1 7:4 8:2 9:2 11:1 15:2 16:1 20:1 22:1 23:1 28:1 32:1 36:2 37:1 253:0
0 1:6 2:6 4:1 5:1 6:2 9:5 11:2 14:2 15:2 16:1 35:1 38:1 39:2 40:1 253:0
0 1:6 2:6 4:11 5:7 6:2 9:6 10:7 11:6 15:2 16:1 20:2 22:1 23:1 24:1 253:0
0 1:10 2:10 3:2 4:3 5:2 6:3 7:4 8:2 9:5 10:1 11:2 17:3 18:1 19:2 21:1 23:1 28:2 29:2 33:4 34:5 35:1 36:2 37:1 112:3 113:3 253:0
0 1:12 2:12 4:7 6:8 10:5 14:4 15:3 16:1 20:1 22:1 23:2 24:3 253:0
0 1:12 2:12 4:8 5:2 6:4 9:3 10:10 11:3 15:1 20:2 253:0
0 1:6 2:6 4:3 5:2 6:2 9:2 10:2 11:1 15:1 20:2 253:0
0 1:6 2:4 3:4 4:4 7:4 8:2 10:2 12:4 13:2 40:2 72:4 87:4 88:2 89:2 253:0
0 1:14 2:15 3:3 4:9 6:5 7:2 8:1 10:9 15:3 16:1 20:5 22:1 23:1 24:1 25:1 253:0
0 1:12 2:12 4:7 5:3 9:5 10:6 11:3 14:6 15:8 16:4 20:6 29:2 32:1 34:3 38:1 39:1 40:1 111:3 113:3 141:1 253:0
0 1:6 2:6 4:8 5:3 6:4 9:3 10:5 11:3 12:3 13:2 14:2 15:3 16:1 20:5 23:1 24:1 28:1 41:1 90:1 91:1 253:0
0 1:10 2:9 3:2 4:4 6:4 7:2 8:1 9:2 10:1 11:1 15:4 16:1 20:5 22:1 23:1 24:1 26:2 27:1 29:3 36:1 253:0
0 1:7 2:6 3:1 4:9 6:4 7:2 8:1 10:8 17:1 18:1 19:2 21:2 25:2 33:2 34:1 59:1 60:1 61:2 62:1 63:2 64:2 65:1 92:2 136:1 253:0
0 1:8 2:9 3:3 4:11 5:10 6:3 7:2 8:1 9:8 10:6 11:7 23:2 24:2 25:1 28:2 33:2 34:1 253:0
0 1:12 2:12 4:10 5:6 6:4 9:6 10:4 11:6 14:8 15:8 16:4 20:2 23:2 24:2 28:2 253:0
0 1:6 2:6 4:7 5:4 6:4 9:2 10:4 11:1 14:2 15:3 16:1 20:3 253:0
0 1:12 2:12 3:8 4:3 6:3 7:8 8:3 9:1 10:1 25:1 36:2 37:2 40:1 72:2 88:1 89:1 94:2 95:1 114:1 253:0
0 4:3 10:2 15:1 20:1 22:1 23:2 24:3 253:0
0 1:6 2:6 4:2 6:2 10:1 15:1 20:1 22:1 23:1 24:1 253:0
0 1:7 2:6 3:1 7:2 8:1 9:2 29:2 36:1 42:1 43:1 44:2 45:1 62:2 63:2 64:4 65:1 92:3 93:1 121:1 142:1 253:0
0 4:6 10:4 15:9 16:3 20:13 27:3 55:2 76:3 104:3 253:0
0 1:12 2:12 4:7 5:2 6:4 9:2 10:4 11:1 15:2 16:1 20:2 22:1 23:3 24:3 28:1 62:2 93:1 107:2 109:1 253:0
0 1:6 2:6 14:6 15:4 16:1 253:0
0 4:14 5:8 9:6 10:15 11:6 23:1 24:1 28:1 74:1 97:3 253:0
0 1:6 2:6 4:3 6:2 10:2 14:6 15:3 23:1 24:2 253:0
0 1:10 2:10 3:4 4:7 5:4 6:2 7:6 8:3 9:9 10:8 11:7 14:2 15:2 16:1 22:1 23:2 24:1 28:2 29:3 32:1 36:1 37:2 253:0
0 1:8 2:9 3:3 4:3 6:3 7:2 8:1 9:1 14:2 15:3 16:1 20:2 22:1 23:1 24:1 25:1 66:2 253:0
0 1:12 2:12 4:1 6:2 9:2 14:2 15:2 20:1 22:1 23:1 24:1 29:4 59:1 60:1 61:2 62:1 63:2 64:2 65:1 92:2 127:2 128:1 253:0
0 4:19 10:20 12:3 13:1 15:5 16:1 20:7 22:1 23:1 24:1 118:4 119:2 253:0
0 1:9 2:8 3:2 4:4 5:3 7:2 8:1 9:3 10:2 11:1 14:2 15:3 16:1 20:3 29:2 66:2 253:0
0 1:12 2:12 3:4 4:5 6:4 7:2 9:1 10:6 14:2 15:1 26:2 27:1 29:2 94:2 95:2 96:2 144:1 253:0
0 1:6 2:6 4:6 5:3 6:2 9:3 10:5 11:1 14:2 15:2 16:1 20:3 38:1 39:1 40:1 72:1 253:0
0 1:6 2:6 4:5 5:5 6:2 9:4 10:3 11:2 23:2 24:2 28:2 58:2 59:1 60:1 61:2 62:1 63:2 64:2 65:1 92:2 253:0
0 1:12 2:12 4:8 5:6 6:4 9:6 10:5 11:4 12:3 13:1 23:1 24:1 28:1 41:1 88:1 114:3 253:0
0 1:8 2:9 3:3 4:6 5:4 6:1 7:2 8:1 9:2 10:4 11:1 14:2 15:3 16:1 20:3 25:1 253:0
0 1:6 2:6 4:8 5:3 6:2 9:2 10:7 11:1 14:2 15:3 16:1 20:3 253:0
0 1:6 2:6 4:3 6:2 9:2 10:2 11:1 12:2 13:1 14:4 15:6 16:2 20:1 22:1 23:2 24:3 29:2 41:1 55:1 74:1 75:1 97:2 253:0
0 1:10 2:9 3:2 4:7 5:1 6:7 7:2 8:1 9:3 10:4 11:3 14:3 15:4 16:2 20:2 22:1 23:2 24:2 25:1 28:1 103:1 253:0
0 4:27 10:40 15:3 16:1 20:3 22:2 23:4 24:6 253:0
0 1:12 2:12 4:6 6:6 9:3 10:4 11:3 12:2 13:1 14:4 15:4 16:2 20:3 23:1 24:2 29:4 253:0
0 1:1 3:2 4:7 5:3 6:1 7:4 8:2 9:5 10:8 11:1 15:2 20:2 23:1 24:1 25:1 28:1 29:1 35:1 36:1 37:1 38:1 39:2 40:1 66:2 253:0
0 4:2 5:1 9:3 10:1 11:3 15:1 20:1 46:2 47:2 48:2 49:4 50:2 51:4 52:4 53:2 151:2 166:1 253:0
0 1:12 2:12 4:15 5:4 6:10 9:3 10:17 11:3 15:1 20:3 253:0
0 1:4 2:3 3:2 4:2 7:2 8:1 14:1 15:3 20:2 26:5 27:3 51:3 53:3 82:3 103:1 129:3 130:1 132:1 253:0
0 4:21 10:31 12:3 13:1 15:2 20:5 118:1 119:1 253:0
0 1:6 2:6 4:1 33:2 34:1 62:2 63:2 64:4 65:1 92:2 93:1 107:1 253:0
0 1:9 2:8 4:3 5:2 6:4 9:4 11:2 17:2 18:1 19:2 21:2 23:2 24:1 26:4 27:2 28:3 35:1 40:1 72:1 88:1 89:1 114:2 253:0
0 1:14 2:12 3:4 4:7 5:3 6:7 7:4 8:2 9:4 10:4 11:2 15:2 20:2 23:1 24:1 25:1 26:2 27:1 28:1 29:4 33:2 34:1 253:0
0 1:2 3:4 4:6 5:2 6:3 7:8 8:4 9:4 10:2 11:2 25:3 35:1 37:2 39:2 40:1 62:2 93:1 107:2 253:0
0 4:5 5:2 9:5 10:3 11:3 12:1 13:1 15:4 16:1 20:6 23:1 28:2 32:1 35:1 38:1 39:1 40:1 41:1 72:1 253:0
0 1:12 2:12 3:5 4:2 5:1 7:4 8:2 9:2 10:1 11:1 29:2 87:2 88:1 114:2 253:0
0 1:6 2:6 4:7 5:4 9:7 10:8 11:3 26:2 27:1 29:2 35:3 38:2 39:4 40:2 253:0
0 1:12 2:12 4:8 5:3 6:4 9:2 10:6 11:1 15:4 16:2 20:7 55:1 253:0
0 1:7 2:6 3:2 4:5 5:6 6:3 7:4 8:2 9:7 10:3 11:6 23:1 24:1 25:1 26:2 27:1 28:1 29:1 35:1 36:1 37:1 38:1 39:2 40:1 253:0
0 1:12 2:12 4:10 5:3 6:4 9:3 10:9 11:3 15:2 16:1 20:4 22:1 23:1 24:1 253:0
0 1:6 2:6 4:10 5:13 6:2 9:8 10:7 11:7 15:4 16:2 20:1 22:1 23:3 24:3 28:2 35:1 55:1 62:2 93:1 100:1 107:4 253:0
0 1:6 2:6 4:7 5:3 6:2 9:3 10:5 11:1 15:2 16:1 20:2 22:1 23:1 24:1 29:2 253:0
0 1:6 2:6 4:5 5:3 6:2 9:4 10:4 11:3 23:2 24:2 26:2 27:1 28:2 38:1 39:1 40:1 62:2 93:1 100:1 107:1 149:1 253:0
0 1:1 3:1 4:6 5:6 6:1 7:2 8:1 9:5 10:3 11:2 15:3 20:2 22:1 23:3 24:3 25:1 28:2 36:1 40:1 42:1 43:1 44:2 45:1 72:2 73:1 74:2 75:2 97:2 142:1 253:0
0 1:12 2:12 4:3 5:2 6:4 9:4 10:1 11:3 23:1 24:1 26:2 27:1 28:1 29:2 38:1 40:1 47:3 48:3 50:1 72:2 123:1 150:3 253:0
0 1:3 2:2 3:3 4:5 5:2 6:2 7:5 8:1 9:3 10:3 11:3 29:1 36:1 37:2 94:5 95:2 253:0
0 1:6 2:6 4:18 5:4 6:4 9:3 10:24 11:3 12:2 13:1 14:2 15:1 253:0
0 1:12 2:12 4:6 5:1 6:6 9:3 10:7 11:3 12:2 13:1 253:0
0 1:6 2:6 9:3 11:3 14:2 15:1 29:2 253:0
0 4:22 10:33 12:7 13:3 15:3 20:6 23:2 24:4 34:1 112:3 253:0
0 1:6 2:6 4:6 5:4 9:8 10:4 11:6 29:2 35:1 38:2 39:3 40:2 72:1 253:0
0 4:4 5:2 9:3 10:2 11:3 12:3 13:1 15:1 40:1 72:1 73:1 74:1 75:1 253:0
0 1:12 2:12 4:5 5:3 6:4 9:4 10:4 11:3 15:1 20:3 26:2 27:1 29:2 38:1 39:1 40:1 72:1 253:0
0 1:4 2:3 3:2 4:3 5:1 6:5 7:2 8:1 9:1 14:2 15:2 20:1 25:1 50:1 51:3 52:3 53:3 82:1 253:0
0 4:23 10:35 12:5 13:2 15:3 20:6 23:2 24:4 50:1 51:3 52:3 53:3 82:1 253:0
0 4:6 5:3 9:2 10:4 11:1 15:1 20:1 22:1 23:3 24:4 28:1 40:1 72:1 128:1 208:1 253:0
0 1:12 2:12 4:4 6:4 10:2 14:4 15:2 16:1 23:2 24:4 27:2 76:2 253:0
0 1:6 2:6 4:12 5:3 6:2 9:3 10:11 11:3 15:2 16:1 20:2 22:1 23:1 24:1 253:0
0 1:12 2:12 4:8 5:4 6:2 9:8 10:7 11:7 23:2 24:2 26:2 27:1 28:2 29:4 33:2 34:1 35:1 253:0
0 1:12 2:12 4:6 6:4 10:8 15:1 20:3 26:4 27:2 253:0
0 1:6 2:6 4:5 5:4 6:4 9:5 11:4 15:2 20:2 22:2 23:3 24:3 28:1 29:2 253:0
0 4:13 5:5 9:4 10:11 11:2 15:4 16:2 20:6 22:1 23:3 24:3 28:2 253:0
0 1:6 2:6 4:8 5:4 6:2 9:2 10:8 11:1 253:0
0 1:6 2:6 4:15 5:7 6:4 9:5 10:17 11:4 12:2 13:1 14:4 15:3 16:1 20:2 23:1 24:2 253:0
0 1:6 2:6 9:2 29:4 38:2 40:2 98:2 163:2 253:0
0 1:6 2:4 4:3 5:1 6:2 9:3 12:2 13:1 17:2 18:1 19:2 21:1 23:1 24:1 28:1 29:2 40:1 42:2 43:1 44:2 72:1 74:2 88:1 89:1 97:2 102:1 114:1 115:2 116:2 117:2 142:1 153:1 253:0
0 1:6 2:6 4:12 5:3 6:2 9:4 10:12 11:6 15:2 16:1 20:3 22:1 23:1 24:1 253:0
0 1:6 2:6 4:13 5:3 6:4 9:3 10:16 11:3 14:4 15:6 16:2 20:4 22:1 23:1 24:1 40:1 72:2 73:1 74:1 75:1 253:0
0 1:14 2:13 3:2 4:6 5:1 6:4 7:4 8:2 9:3 10:5 11:1 14:2 15:2 16:1 23:1 24:1 26:2 27:1 28:1 29:2 36:2 37:1 58:1 59:1 60:1 61:2 62:1 63:2 64:2 65:1 92:2 253:0
0 1:6 2:6 4:13 5:3 6:2 9:3 10:11 11:3 15:3 16:1 20:5 22:1 23:1 24:1 118:2 119:1 253:0
0 4:22 10:20 15:7 16:2 20:11 22:1 23:1 24:1 253:0
0 1:7 2:6 3:1 4:3 5:1 6:3 7:2 8:1 9:2 11:1 14:2 15:4 16:2 20:2 22:1 23:2 24:2 25:1 28:1 36:1 42:1 43:1 44:2 45:1 142:1 253:0
0 1:6 2:6 4:4 5:1 6:2 9:3 10:1 11:3 15:3 16:1 20:3 22:1 23:1 24:1 26:2 27:1 40:1 72:2 73:1 74:1 75:1 253:0
0 1:10 2:9 3:5 4:7 5:1 6:2 7:6 8:3 9:1 10:8 15:1 20:1 22:1 23:1 24:1 25:2 26:4 27:2 37:2 66:2 253:0
0 1:7 2:8 3:3 4:2 6:1 7:4 8:2 10:1 14:4 15:4 16:2 25:1 37:1 253:0
0 1:9 2:8 4:9 5:7 6:3 9:5 10:5 11:4 15:2 20:2 22:2 23:3 24:3 28:1 42:2 43:1 44:2 62:2 93:1 102:1 107:3 253:0
0 1:6 2:6 4:3 5:2 6:2 9:3 10:2 11:3 23:1 24:2 253:0
0 4:5 5:1 9:1 10:4 15:6 16:1 20:10 23:1 24:1 28:1 55:1 253:0
0 1:6 2:6 4:9 6:4 7:2 10:6 14:4 15:3 16:1 20:1 23:1 24:2 25:2 37:1 94:2 95:3 144:2 253:0
0 1:12 2:12 4:6 5:3 6:6 9:3 10:2 11:3 14:2 15:2 16:1 20:1 34:3 112:3 113:3 253:0
0 1:6 2:6 4:12 5:5 6:2 9:6 10:12 11:6 23:1 24:1 28:1 253:0
0 1:12 2:12 4:6 5:3 6:4 9:3 10:3 11:3 15:3 16:1 20:5 22:1 23:1 24:1 253:0
0 1:12 2:12 4:6 5:3 6:4 9:2 10:4 11:1 14:4 15:3 20:2 253:0
0 1:6 2:6 4:11 6:6 10:13 12:2 13:1 14:2 15:3 16:1 20:2 22:1 23:2 24:3 54:1 253:0
0 4:2 5:2 9:1 10:1 15:2 20:2 22:1 23:1 24:1 50:1 51:3 52:3 53:3 82:1 253:0
0 1:12 2:12 4:6 5:5 9:8 10:4 11:7 14:4 15:4 16:2 20:3 23:1 26:2 27:1 28:2 29:4 35:1 253:0
0 1:6 2:6 4:5 5:5 6:2 9:5 10:5 11:2 14:2 15:2 16:1 20:2 23:3 24:2 28:4 33:2 34:1 35:1 253:0
0 1:12 2:12 4:2 6:4 10:1 14:6 15:4 16:1 23:1 24:2 253:0
0 1:8 2:7 3:2 4:4 5:5 6:2 7:2 9:7 10:1 11:6 26:2 27:1 29:2 66:1 94:2 95:1 96:1 253:0
0 23:1 253:0
0 1:12 2:12 4:4 5:1 6:4 9:3 10:4 11:3 15:1 20:2 26:2 27:1 253:0
0 27:2 104:1 253:0
0 1:6 2:6 4:9 5:7 6:2 9:9 10:4 11:9 12:4 13:2 15:3 16:1 20:4 22:1 23:2 24:1 26:2 27:1 28:2 32:1 41:1 54:1 253:0
0 1:8 2:7 3:2 4:15 5:3 6:6 7:2 9:4 10:15 11:1 15:1 20:2 23:2 24:3 25:2 28:1 29:4 34:3 66:1 94:2 95:1 96:1 112:3 113:3 253:0
0 1:1 3:2 4:10 5:3 6:1 7:2 9:3 10:10 11:3 25:1 62:2 92:1 93:1 107:1 110:1 174:2 176:2 189:1 253:0
0 1:12 2:12 4:8 5:6 6:4 9:5 10:6 11:4 15:1 20:3 23:1 24:1 28:1 253:0
0 1:6 2:6 4:8 5:6 6:2 9:5 10:3 11:4 12:3 13:1 15:3 16:1 20:3 22:2 23:4 24:4 28:2 41:1 62:2 93:1 100:1 107:2 253:0
0 1:12 2:12 4:8 5:3 6:8 9:3 10:3 11:1 14:4 15:4 16:2 20:1 23:1 24:1 28:1 253:0
0 1:6 2:6 9:3 14:2 15:1 29:6 74:3 97:3 115:3 116:3 117:3 253:0
0 1:6 2:6 4:11 5:4 6:2 9:3 10:10 11:3 12:3 13:1 15:1 20:1 22:1 23:2 24:3 33:2 34:1 62:1 107:2 253:0
0 1:6 2:6 4:3 5:1 6:2 7:2 9:2 10:1 11:1 14:2 15:1 23:2 24:3 25:2 28:1 29:2 33:2 34:1 37:1 94:2 95:3 144:2 253:0
0 1:12 2:12 4:5 6:4 10:2 15:1 20:1 22:1 23:1 24:1 26:2 27:1 62:2 63:2 64:4 65:1 92:2 93:1 107:2 118:2 119:1 253:0
0 1:6 2:6 4:9 5:3 6:2 9:3 10:6 11:3 14:2 15:2 16:1 20:1 23:1 24:2 253:0
0 4:12 9:1 10:10 15:6 16:3 20:8 22:1 23:1 28:1 32:1 55:1 253:0
0 1:12 2:12 4:4 5:3 6:4 9:4 10:2 11:3 15:2 16:1 20:1 26:2 27:1 29:2 30:2 31:1 38:1 40:1 72:2 253:0
0 1:2 2:1 3:5 4:4 5:1 7:8 8:4 9:2 10:5 14:1 15:3 16:1 20:3 36:2 37:3 47:1 48:1 49:2 50:1 51:2 52:2 53:1 66:2 103:1 151:1 253:0
0 1:4 2:3 3:2 4:10 5:6 6:2 7:2 8:1 9:6 10:5 11:4 12:4 13:2 14:1 15:2 16:1 20:1 23:2 24:4 41:2 103:1 253:0
0 4:6 5:1 9:3 10:7 11:1 12:1 13:1 23:2 24:1 28:3 35:1 253:0
0 1:12 2:12 4:4 5:3 6:4 9:4 10:1 11:3 15:2 20:2 23:1 24:1 26:2 27:1 28:1 29:2 32:1 33:2 34:1 38:1 40:1 72:2 253:0
0 1:6 2:6 4:5 5:4 6:2 9:3 10:2 11:3 14:2 15:2 20:1 22:1 23:2 24:2 28:1 62:3 93:1 100:1 107:3 253:0
0 1:8 2:6 3:4 4:10 5:6 6:2 7:4 8:2 9:8 10:10 11:6 15:2 16:1 20:2 23:1 24:1 28:1 29:4 34:2 36:2 62:2 92:3 93:1 110:1 112:4 113:1 253:0
0 1:6 2:6 9:2 11:1 14:2 15:2 16:1 22:1 23:1 26:2 27:1 28:1 29:2 30:2 31:1 32:1 253:0
0 1:12 2:12 4:8 5:4 6:4 9:3 10:7 11:3 15:1 20:1 253:0
0 1:12 2:12 4:3 5:2 6:4 9:5 10:1 11:2 14:2 15:2 16:1 23:2 24:1 26:2 27:1 28:3 35:1 58:1 59:1 60:1 61:2 62:1 63:2 64:2 65:1 92:2 253:0
0 4:18 10:20 12:2 13:1 15:10 16:5 20:12 22:3 23:3 24:3 54:1 55:1 253:0
0 1:6 2:6 4:5 5:3 6:2 9:2 10:2 11:1 12:2 13:1 15:2 16:1 20:4 23:1 24:1 28:1 32:1 253:0
0 4:26 10:36 12:5 13:2 15:5 16:2 20:8 22:2 23:4 24:6 253:0
0 13:1 15:3 27:2 50:1 51:3 52:3 53:3 54:1 82:3 104:1 133:2 253:0
0 1:10 2:9 3:2 4:3 5:1 6:4 7:2 8:1 9:2 10:1 11:1 12:3 13:1 30:2 31:1 253:0
0 1:12 2:12 4:4 5:2 6:4 9:4 10:1 11:3 23:1 24:1 28:1 29:4 38:1 39:1 40:1 72:1 253:0
0 1:12 2:12 4:3 5:2 6:4 9:3 10:1 11:1 23:1 24:1 26:2 27:1 28:1 29:2 38:1 40:1 72:2 73:1 74:1 97:1 253:0
0 1:12 2:12 4:9 5:10 6:6 9:11 10:5 11:10 23:1 28:2 33:2 34:1 35:1 253:0
0 1:9 2:8 4:6 5:3 6:7 9:4 10:1 11:3 15:2 16:1 20:2 22:1 23:1 24:1 29:1 42:2 43:1 44:2 102:1 142:1 253:0
0 1:16 2:15 3:2 4:10 5:9 6:7 7:2 8:1 9:8 10:3 11:7 12:2 13:1 23:1 24:1 25:1 28:1 253:0
0 1:14 2:15 3:3 4:5 5:5 6:3 7:2 8:1 9:6 10:1 11:6 14:6 15:6 16:3 25:1 29:2 253:0
0 1:6 2:6 4:5 5:6 6:2 9:7 11:5 23:2 24:2 28:2 29:2 253:0
0 1:7 2:6 3:1 4:1 5:1 6:2 7:2 8:1 9:3 11:1 14:2 15:1 23:1 24:1 28:1 29:1 36:1 42:1 43:1 44:2 45:1 74:1 97:1 115:1 116:1 117:1 142:2 253:0
0 1:8 2:9 3:3 4:13 5:4 6:3 7:2 8:1 9:3 10:15 11:3 15:2 20:3 22:1 23:1 24:1 25:1 253:0
0 4:5 10:2 62:4 63:4 64:8 65:2 93:2 107:6 164:1 253:0
0 1:6 2:6 4:3 5:1 6:4 9:2 10:1 15:2 16:1 20:2 32:1 34:3 38:1 39:1 40:1 112:3 113:3 141:1 253:0
0 4:10 5:14 9:14 10:2 11:18 23:2 24:2 28:2 31:2 124:2 253:0
0 1:12 2:12 4:2 6:6 33:2 34:1 118:1 119:1 253:0
0 1:4 2:3 3:2 4:9 5:2 6:2 7:2 8:1 9:2 10:5 11:1 12:6 13:2 15:4 16:2 20:4 22:2 23:2 24:2 41:2 62:2 92:1 93:1 110:1 253:0
0 1:12 2:12 4:1 5:1 6:2 9:4 11:2 14:2 15:2 16:1 22:1 23:2 24:1 28:2 29:2 32:1 253:0
0 1:12 2:12 9:4 11:1 23:1 28:2 29:4 35:1 62:2 63:2 64:4 65:1 92:4 93:1 253:0
0 4:6 5:4 9:5 10:5 11:4 12:1 13:1 23:1 24:1 28:1 35:1 98:1 99:2 253:0
0 1:9 2:10 3:3 4:5 6:3 7:2 8:1 9:1 10:4 15:1 20:2 25:1 29:2 253:0
0 1:12 2:12 4:7 5:5 6:6 9:6 10:3 11:6 15:2 16:1 20:2 22:1 23:2 24:2 26:2 27:1 28:1 253:0
0 1:6 2:6 4:11 5:4 6:2 9:2 10:10 11:1 14:4 15:5 16:2 20:4 22:2 23:2 24:2 253:0
0 1:3 2:2 4:3 5:2 6:1 9:4 10:1 11:3 13:1 15:1 20:2 23:1 24:1 28:1 38:1 39:1 40:1 41:1 42:2 43:1 44:2 62:2 93:1 100:1 102:1 106:1 149:1 253:0
0 4:13 5:8 9:12 10:8 11:8 35:2 40:2 72:4 88:2 89:2 98:2 99:4 114:2 253:0
0 1:12 2:12 4:11 5:6 6:6 9:6 10:5 11:6 12:6 13:2 15:2 16:1 20:3 23:2 24:2 26:2 27:1 28:2 41:1 253:0
0 1:7 2:6 3:2 4:10 5:5 6:3 7:4 8:2 9:10 10:8 11:9 23:3 24:3 25:1 28:3 29:1 33:2 34:1 35:1 36:1 37:1 66:2 253:0
0 1:8 2:7 3:2 4:2 6:4 7:4 8:2 9:2 10:1 14:4 15:4 16:2 29:1 36:3 37:1 253:0
0 4:27 10:39 12:3 13:1 15:4 16:2 20:7 22:2 23:3 24:4 253:0
0 1:12 2:12 4:9 5:2 6:4 9:3 10:10 11:3 15:2 16:1 20:3 22:1 23:1 24:1 253:0
0 1:6 2:6 4:1 6:2 14:2 15:3 51:3 53:3 62:2 82:3 92:2 93:1 129:3 130:1 253:0
0 1:6 2:6 4:8 5:4 6:4 9:2 10:4 11:1 12:2 13:1 14:4 15:5 16:2 20:4 22:1 23:1 24:1 253:0
0 1:6 2:6 4:8 5:2 6:4 9:3 10:9 11:1 23:2 24:2 28:2 29:2 40:1 72:2 88:1 89:1 114:1 253:0
0 1:11 2:14 4:7 6:2 10:10 14:2 15:3 16:1 20:1 22:1 23:1 24:1 253:0
0 1:7 2:6 3:2 4:2 5:1 6:2 7:6 8:2 9:1 25:4 37:2 66:2 94:2 95:3 144:2 253:0
0 1:2 2:1 3:2 4:7 5:2 6:2 7:4 8:2 9:4 10:1 11:3 12:2 13:1 15:2 16:1 20:2 22:1 23:3 24:2 25:2 28:1 29:1 36:1 37:1 41:1 62:2 93:1 106:1 107:2 109:1 253:0
0 4:6 5:2 9:5 10:5 11:3 12:1 13:1 15:4 16:1 20:7 23:1 27:1 28:2 32:1 34:1 35:1 38:1 39:1 40:1 41:1 72:1 76:1 112:2 253:0
0 1:12 2:12 3:2 7:2 8:1 9:4 11:2 14:2 15:2 16:1 23:1 28:2 29:2 35:1 36:1 42:2 43:1 44:2 45:1 142:1 253:0
0 1:6 2:6 4:5 5:4 6:2 9:4 10:2 11:3 15:1 20:1 22:1 23:1 24:1 27:2 29:2 76:2 253:0
0 4:9 10:8 12:1 13:1 15:1 20:1 22:1 23:1 24:1 253:0
0 1:8 2:9 3:3 4:9 5:7 6:4 7:2 8:1 9:8 10:7 11:7 23:1 28:2 35:1 253:0
0 1:8 2:9 3:3 4:12 5:6 6:3 7:2 8:1 9:4 10:13 11:3 15:3 16:1 20:3 22:1 23:1 24:1 25:1 30:2 31:1 32:1 66:2 253:0
0 1:6 2:6 4:4 5:6 6:2 9:9 11:7 23:1 28:2 29:2 34:3 35:1 112:3 113:3 253:0
0 4:6 5:3 9:9 10:3 11:9 15:6 16:3 20:9 23:3 28:6 35:3 253:0
0 1:12 2:12 4:6 5:5 6:2 9:7 10:4 11:6 12:2 13:1 15:1 20:1 22:1 23:2 24:3 29:6 33:6 34:3 41:1 253:0
0 1:3 2:2 4:2 6:2 9:2 35:1 40:1 42:2 43:1 44:2 72:1 88:1 89:1 90:1 91:1 98:1 99:2 102:2 114:1 253:0
0 9:6 11:3 23:3 28:6 35:3 56:6 57:3 253:0
0 1:9 2:10 3:3 4:1 6:1 7:2 8:1 14:2 15:2 20:1 22:1 23:1 24:1 25:1 26:2 27:1 253:0
0 1:12 2:12 4:5 5:5 6:2 9:5 10:2 11:4 14:2 15:2 16:1 20:1 23:2 24:2 28:2 29:2 33:2 34:1 253:0
0 1:6 2:6 4:4 5:1 6:4 9:3 10:1 11:1 29:2 38:1 39:1 40:1 62:2 93:1 100:1 107:1 149:1 253:0
0 1:12 2:12 4:11 5:6 6:4 9:6 10:11 11:6 15:2 16:1 20:2 23:1 24:1 28:1 253:0
0 1:12 2:12 4:9 5:2 6:4 9:3 10:10 11:3 15:2 16:1 20:3 22:1 23:1 24:1 253:0
0 1:6 2:6 4:6 5:5 6:2 9:5 10:1 11:4 12:3 13:1 14:2 15:3 16:1 20:2 22:1 23:2 24:2 28:1 54:1 253:0
0 1:6 2:6 4:5 5:5 6:4 9:4 10:1 11:3 23:2 24:2 28:2 58:1 59:1 60:1 61:2 62:1 63:2 64:2 65:1 107:1 253:0
0 4:1 5:2 9:5 11:4 23:1 24:1 28:1 35:1 39:2 40:1 50:1 51:2 52:2 53:1 78:1 80:2 81:1 219:1 253:0
0 1:1 3:2 4:8 5:2 6:1 7:4 8:2 9:6 10:6 11:6 12:2 13:1 23:2 24:1 25:3 28:3 29:1 35:1 36:1 37:1 253:0
0 4:16 5:4 9:8 10:14 11:8 15:1 20:1 22:1 23:2 24:1 28:2 35:1 253:0
0 1:1 3:2 4:8 5:2 6:1 7:4 8:2 9:7 10:6 11:6 15:3 16:1 20:4 23:2 24:1 25:1 28:3 29:1 32:1 35:1 36:1 37:1 66:2 253:0
0 1:6 2:6 4:10 5:6 6:4 9:5 10:6 11:4 14:2 15:2 16:1 23:2 24:3 28:1 253:0
0 1:10 2:9 3:2 4:4 6:2 7:2 8:1 10:3 14:2 15:4 16:2 20:5 22:1 23:1 24:1 26:2 27:1 253:0
0 4:9 5:2 9:4 10:14 11:2 12:1 13:1 23:3 24:2 28:4 35:1 253:0
0 1:6 2:6 4:7 5:8 6:2 9:7 10:3 11:4 12:3 13:1 15:1 20:1 22:1 23:3 24:3 28:2 29:2 41:1 58:1 59:1 60:1 61:2 62:3 63:2 64:2 65:1 93:1 100:1 107:2 253:0
0 1:14 2:15 3:3 4:4 5:1 6:5 7:2 8:1 9:1 10:1 14:4 15:5 16:2 20:1 22:1 23:2 24:3 25:1 66:2 253:0
0 4:11 10:9 15:4 16:1 20:5 22:1 23:1 24:1 253:0
0 1:14 2:15 3:3 4:4 5:2 6:5 7:2 8:1 9:2 10:1 14:4 15:3 16:1 25:1 66:2 253:0
0 4:21 10:25 12:2 13:1 15:6 16:2 20:7 22:1 23:1 24:1 253:0
0 1:7 2:5 3:2 4:4 5:3 6:4 7:2 8:1 9:5 11:4 17:2 18:1 19:2 21:2 23:1 24:1 28:1 62:2 74:1 93:1 105:2 107:2 253:0
0 1:1 3:2 4:1 5:1 6:1 7:4 8:2 9:6 11:4 23:2 24:1 25:1 28:3 29:1 35:1 36:1 37:1 66:2 253:0
0 1:12 2:12 3:5 4:7 5:3 6:4 7:4 8:2 9:3 10:6 11:3 12:3 13:1 62:2 92:1 93:1 107:1 110:1 253:0
0 1:6 2:6 4:1 5:1 9:2 11:1 14:2 15:1 23:1 24:1 28:1 29:2 253:0
0 1:2 3:4 4:6 5:3 6:3 7:8 8:4 9:4 10:2 11:2 25:3 35:1 37:2 39:2 40:1 62:2 93:1 107:2 253:0
0 4:13 10:12 15:1 20:1 253:0
0 4:20 10:26 12:9 13:3 15:1 20:3 23:1 24:2 118:1 119:1 253:0
0 1:6 2:6 4:3 5:2 6:2 9:1 10:2 23:1 24:2 253:0
0 1:11 2:9 3:5 4:7 5:1 6:5 7:8 8:5 9:2 10:5 11:1 19:1 21:1 23:1 24:1 25:4 28:1 29:2 34:1 37:2 69:1 70:1 71:1 112:2 136:1 253:0
0 1:12 2:12 4:11 5:6 6:4 9:6 10:11 11:6 15:2 16:1 20:2 23:1 24:1 28:1 253:0
0 1:12 2:12 4:1 5:2 9:6 11:6 29:4 62:2 92:4 93:1 253:0
0 1:12 2:12 4:6 5:5 9:8 10:6 11:7 29:4 58:2 59:1 60:1 61:2 62:3 63:2 64:2 65:1 92:6 93:1 253:0
0 1:12 2:12 4:12 5:5 6:4 9:5 10:13 11:4 12:2 13:1 23:2 24:2 28:2 253:0
0 1:9 2:8 3:2 4:8 5:5 6:4 7:2 9:6 10:6 11:6 23:1 24:1 26:1 27:1 28:1 29:1 33:2 34:1 36:1 94:2 95:1 132:1 253:0
0 1:16 2:15 3:2 4:4 6:8 7:2 8:1 9:2 11:1 15:4 16:2 20:4 22:2 23:2 24:2 29:3 34:3 36:1 55:1 112:3 113:3 253:0
0 1:9 2:10 3:7 7:6 8:2 37:1 94:2 95:1 253:0
0 1:12 2:12 14:4 15:2 26:4 27:2 62:2 92:4 93:1 253:0
0 4:18 10:17 12:5 13:2 15:12 16:6 20:16 22:4 23:4 24:4 54:1 55:1 253:0
0 1:6 2:6 4:2 6:2 10:1 12:1 13:1 14:4 15:4 16:2 55:1 253:0
0 1:8 2:7 3:2 4:3 6:4 7:4 8:2 9:2 11:1 15:1 20:1 22:1 23:1 24:1 26:1 27:1 29:3 36:1 37:1 62:2 93:1 107:1 110:2 132:1 253:0
0 1:12 2:12 4:10 5:3 6:8 7:2 9:3 10:4 11:3 12:5 13:2 15:2 16:1 20:1 22:1 23:2 24:2 25:2 28:1 33:2 34:1 37:1 41:1 94:2 95:3 144:2 253:0
0 1:14 2:13 3:1 4:3 5:2 6:5 7:1 9:4 11:2 23:2 24:2 25:1 26:2 27:1 28:2 29:3 42:1 44:1 142:1 174:1 175:1 176:1 253:0
0 1:6 2:6 4:2 5:1 6:2 9:2 10:1 11:1 14:4 15:4 16:2 55:1 253:0
0 1:2 2:1 3:5 4:4 5:1 7:8 8:4 9:1 10:3 15:5 16:1 20:8 32:1 37:3 62:1 66:2 92:1 110:1 253:0
0 1:12 2:12 4:7 6:6 10:6 14:8 15:8 16:4 40:2 72:4 88:1 89:2 253:0
0 1:6 2:6 4:10 5:1 6:2 9:3 10:12 11:3 253:0
0 4:9 5:4 9:2 10:8 11:1 253:0
0 1:6 2:6 4:6 5:4 6:2 9:7 10:2 11:5 12:2 13:1 14:2 15:3 16:1 20:3 23:2 24:1 28:3 35:1 41:1 253:0
0 1:12 2:12 4:6 5:2 6:6 9:6 10:3 11:6 29:4 90:1 91:1 253:0
0 1:6 2:6 4:5 5:3 6:2 9:3 10:3 11:3 15:2 16:1 20:1 22:1 23:1 28:1 32:1 253:0
0 1:6 2:6 4:12 5:6 6:2 9:7 10:8 11:6 12:6 13:3 23:2 24:3 28:1 33:2 34:1 38:1 39:1 40:1 41:2 72:1 253:0
0 1:6 2:6 4:3 5:2 6:2 9:5 10:1 11:4 14:2 15:2 16:1 20:2 23:1 28:2 34:3 35:1 112:3 113:3 253:0
0 1:4 2:2 3:4 4:5 5:6 7:6 8:2 9:7 10:2 11:6 26:2 27:1 36:2 37:1 66:1 94:2 95:1 96:1 253:0
0 1:4 2:3 3:2 4:2 5:3 6:1 7:2 8:1 9:3 11:1 23:1 24:1 25:1 26:2 27:1 28:1 253:0
0 1:12 2:12 4:3 6:4 10:1 12:2 13:1 14:12 15:10 16:4 20:1 23:1 24:2 54:1 253:0
0 1:12 2:12 4:5 5:3 6:6 9:3 10:2 11:1 23:2 24:3 26:4 27:2 28:1 29:2 253:0
0 1:13 2:16 3:4 4:4 5:3 7:2 8:1 9:2 10:2 11:1 14:2 15:3 16:1 20:3 253:0
0 1:12 2:12 4:13 5:4 6:6 9:3 10:16 11:3 14:2 15:3 16:1 20:3 253:0
0 1:1 3:1 4:2 5:1 6:1 7:2 8:1 9:8 11:3 25:1 35:2 36:1 38:1 39:4 40:2 42:1 43:1 44:2 45:1 62:2 91:1 93:1 107:2 142:1 157:1 253:0
0 1:14 2:15 3:3 4:6 5:4 6:6 7:2 8:1 9:4 10:1 11:3 12:2 13:1 15:1 20:1 23:1 24:1 28:1 74:1 97:1 253:0
0 4:7 5:2 9:5 10:4 11:4 12:2 13:1 15:5 16:1 20:8 23:2 24:1 28:3 32:1 35:1 41:1 118:2 119:1 253:0
0 1:7 2:6 3:2 4:8 5:3 6:2 7:7 8:3 9:4 10:6 11:3 19:1 21:1 23:1 24:1 25:5 28:1 29:4 37:2 66:2 69:1 70:1 71:1 136:1 253:0
0 1:12 2:12 4:4 5:1 6:4 9:4 10:3 11:2 23:2 24:1 26:4 27:2 28:3 29:2 35:1 40:1 72:1 88:1 89:1 90:1 91:1 114:2 253:0
0 1:4 2:3 3:2 4:4 5:2 7:2 8:1 9:2 10:3 11:1 26:1 27:1 62:2 92:1 93:1 107:2 110:1 132:1 253:0
0 1:12 2:12 4:8 5:1 6:6 7:2 9:2 10:5 11:1 12:3 13:1 14:2 15:3 16:1 18:1 19:2 20:4 21:1 22:1 23:1 24:1 25:1 33:2 34:4 36:1 94:2 95:1 112:3 113:3 136:2 153:1 253:0
0 1:12 2:12 4:5 5:1 6:4 9:3 10:3 11:3 15:4 16:2 20:6 22:1 23:1 24:1 253:0
0 1:6 2:6 3:4 4:9 5:2 6:2 7:2 9:2 10:5 11:1 12:6 13:2 15:4 16:2 20:4 22:2 23:2 24:2 41:2 69:2 70:2 197:1 253:0
0 1:9 2:8 3:2 4:4 5:5 6:2 7:2 9:6 11:6 12:2 13:1 26:1 27:1 29:1 36:1 94:2 95:1 132:1 253:0
0 1:12 2:12 4:9 5:4 6:4 9:3 10:10 11:3 14:2 15:1 23:1 24:2 253:0
0 1:12 2:12 4:5 6:6 10:4 15:1 20:3 34:3 112:3 113:3 253:0
0 1:12 2:12 4:8 5:1 6:4 9:3 10:11 11:3 23:1 24:2 253:0
0 1:6 2:6 4:7 5:4 9:10 10:3 11:8 12:1 13:1 14:4 15:5 16:2 20:4 23:2 24:1 28:3 35:2 41:2 253:0
0 1:18 2:18 4:4 6:6 10:2 12:4 13:1 14:2 15:3 16:1 20:1 22:1 23:1 24:1 253:0
0 1:10 2:9 3:2 4:3 5:1 6:2 7:2 8:1 9:3 10:1 11:1 23:1 24:1 28:1 29:4 34:3 58:1 59:1 60:1 61:2 62:1 63:2 64:2 65:1 92:2 112:3 113:3 253:0
0 1:12 2:12 4:8 5:6 6:4 9:6 10:4 11:6 15:2 16:1 20:2 29:2 253:0
0 1:7 2:6 3:2 4:3 6:4 7:4 8:2 9:2 12:2 13:2 15:1 20:1 22:1 23:1 24:1 25:2 29:1 36:1 37:1 41:1 66:2 74:1 97:1 115:1 116:1 117:1 253:0
0 1:3 2:2 4:5 5:3 6:1 9:2 10:3 11:1 15:3 16:1 20:4 22:2 23:2 24:2 42:2 43:1 44:2 102:1 253:0
0 1:6 2:6 4:4 5:2 6:2 9:3 10:2 11:1 23:1 28:2 35:1 40:1 58:1 59:1 60:1 61:2 62:1 63:2 64:2 65:1 72:1 88:1 89:1 92:2 114:2 253:0
0 1:6 2:6 4:10 5:7 6:2 9:3 10:9 11:3 14:2 15:3 16:1 20:3 253:0
0 1:14 2:15 3:3 4:3 5:1 6:4 7:4 8:1 9:1 10:1 23:1 24:1 25:2 26:2 27:1 28:1 37:1 66:2 94:2 95:3 144:2 253:0
0 1:6 2:6 4:3 5:4 6:2 9:6 10:1 11:4 23:1 24:1 26:2 27:1 28:1 29:2 35:1 38:1 39:2 40:1 253:0
0 1:6 2:6 4:13 5:3 6:4 9:1 10:12 15:2 20:2 50:1 51:3 52:3 53:3 82:1 253:0
0 4:2 10:1 15:2 20:2 74:2 75:1 116:1 117:2 159:1 253:0
0 1:9 2:8 4:5 5:2 6:3 9:3 10:2 11:3 14:2 15:2 16:1 17:2 18:1 19:2 20:1 21:1 22:1 23:2 24:2 27:2 28:1 29:2 76:2 104:1 253:0
0 1:12 2:12 4:6 5:3 6:4 9:4 10:3 11:3 14:2 15:2 16:1 20:1 23:2 24:2 28:2 29:2 253:0
0 4:7 5:2 9:4 10:10 11:2 12:1 13:1 23:3 24:2 28:4 35:1 253:0
0 1:6 2:6 4:12 5:3 6:4 9:3 10:16 11:3 14:4 15:5 16:1 20:7 253:0
0 1:8 2:10 3:2 4:4 7:2 9:1 10:2 12:3 13:1 29:1 36:1 40:1 72:2 88:1 89:1 94:2 95:1 114:1 253:0
0 1:15 2:14 3:2 4:1 6:2 7:2 9:3 14:3 15:4 16:1 20:1 22:1 23:1 24:1 29:5 36:1 58:1 59:1 60:1 61:2 62:1 63:2 64:2 65:1 92:2 94:2 95:1 103:1 127:2 128:1 253:0
0 1:6 2:6 4:11 5:2 6:2 9:4 10:14 11:2 14:4 15:4 16:2 20:2 23:1 28:2 35:1 253:0
0 1:6 2:6 4:4 5:2 6:2 9:4 10:2 11:3 23:1 28:2 35:1 58:1 59:1 60:1 61:2 62:1 63:2 64:2 65:1 92:2 253:0
0 1:14 2:15 4:4 6:6 10:3 15:1 17:3 18:1 19:2 20:1 22:1 23:1 24:1 253:0
0 1:6 2:6 4:21 6:4 10:29 14:2 15:4 16:1 20:7 118:1 119:1 253:0
0 1:6 2:6 4:5 6:2 10:3 15:3 20:6 62:4 90:1 91:1 92:2 93:2 107:3 164:1 253:0
0 1:6 2:6 4:14 5:4 6:2 9:3 10:13 11:3 14:2 15:2 16:1 23:1 24:2 253:0
0 4:24 10:34 12:3 13:1 15:2 16:1 20:4 22:1 23:3 24:5 253:0
0 1:12 2:12 4:8 5:4 6:4 9:5 10:6 11:4 14:4 15:3 16:1 23:1 24:1 28:1 29:2 253:0
0 4:22 5:2 9:1 10:35 15:1 20:2 23:1 24:2 253:0
0 4:5 10:5 15:2 20:5 253:0
0 1:12 2:12 4:2 6:2 9:3 10:1 11:3 15:1 20:1 22:1 23:1 24:1 29:4 62:2 92:4 93:1 253:0
0 1:11 2:9 3:5 4:4 5:1 6:6 7:5 8:4 9:4 11:2 15:2 16:1 22:1 23:1 25:2 28:1 29:4 32:1 37:1 253:0
0 1:11 2:11 3:5 4:2 5:2 7:6 8:3 9:7 11:5 12:2 13:1 23:1 24:1 26:2 27:1 28:1 29:4 30:2 31:1 36:2 37:1 253:0
0 1:10 2:10 3:4 4:7 5:4 7:6 8:3 9:5 10:8 11:1 23:1 24:1 28:1 29:3 36:3 37:2 59:1 60:1 61:2 62:1 63:2 64:2 65:1 66:2 88:1 92:2 114:2 253:0
0 4:1 27:3 76:3 104:3 253:0
0 4:4 5:1 9:3 10:4 11:1 23:2 24:1 28:3 31:1 35:1 124:2 253:0
0 1:10 2:9 3:2 4:8 6:6 7:2 8:1 10:9 15:1 20:1 22:1 23:1 24:1 62:2 90:1 91:1 92:2 93:1 107:1 253:0
0 1:12 2:12 4:13 5:4 6:4 7:2 9:3 10:15 11:3 18:1 19:2 21:2 25:2 94:2 95:1 136:2 253:0
0 1:6 2:6 14:4 15:2 253:0
0 1:14 2:15 4:3 5:4 6:1 9:5 11:4 15:1 17:3 18:1 19:2 20:1 21:1 22:1 23:1 24:1 26:6 27:3 29:2 58:2 59:1 60:1 61:2 62:1 63:2 64:2 65:1 92:2 253:0
0 1:6 2:6 14:4 15:2 62:1 63:2 64:2 65:1 84:1 85:1 86:2 92:2 253:0
0 4:12 5:3 9:1 10:18 253:0
0 1:12 2:12 4:6 5:3 6:4 9:4 10:3 11:6 14:4 15:4 16:2 20:2 22:1 23:1 24:1 253:0
0 1:6 2:6 4:11 5:5 6:6 9:5 10:6 11:4 12:5 13:2 15:6 16:3 20:5 23:2 24:2 26:4 27:2 28:2 41:1 54:1 253:0
0 1:13 2:13 3:5 4:6 5:1 6:6 7:4 8:2 9:6 10:4 11:6 15:3 16:1 20:5 23:1 28:2 29:4 35:1 253:0
0 1:8 2:6 3:4 4:10 5:4 6:4 7:4 8:2 9:5 10:7 11:2 23:2 24:1 25:2 28:3 35:1 58:1 59:1 60:1 61:2 62:1 63:2 64:2 65:1 92:2 253:0
0 1:12 2:12 4:12 5:3 6:6 9:3 10:14 11:3 12:2 13:1 14:4 15:6 16:3 20:4 22:1 23:1 24:1 54:1 253:0
0 1:6 2:6 4:2 6:2 14:2 15:3 16:1 20:2 22:2 23:2 24:2 253:0
0 4:4 10:3 34:12 112:18 113:9 253:0
0 1:6 2:6 4:7 5:6 6:2 7:2 9:6 10:3 11:4 12:3 13:1 15:2 20:3 22:1 23:3 24:3 28:2 37:1 41:1 62:4 66:1 93:2 94:2 95:3 96:1 100:1 107:3 110:2 144:2 253:0
0 1:12 2:12 4:3 5:2 6:4 9:4 10:1 11:3 26:2 27:1 29:2 38:1 40:1 72:2 253:0
0 1:13 2:12 3:1 4:6 5:3 6:5 7:2 8:1 9:5 10:3 11:2 15:1 20:2 23:1 24:1 25:1 28:1 29:2 36:1 42:1 43:1 44:2 45:1 142:1 253:0
0 1:12 2:12 4:13 5:4 6:6 9:2 10:12 11:1 14:2 15:4 16:1 20:4 22:1 23:1 24:1 33:4 34:2 253:0
0 1:1 3:1 4:8 5:6 6:1 7:2 8:1 9:5 10:6 11:2 15:2 20:4 22:1 23:3 24:3 25:1 28:2 36:1 40:1 42:1 43:1 44:2 45:1 58:2 59:1 61:2 63:2 65:1 72:2 73:1 74:1 75:1 84:1 86:2 142:1 158:1 253:0
0 1:6 2:6 3:4 4:6 5:2 7:4 8:2 9:4 10:3 11:3 15:1 20:1 22:1 23:1 24:1 25:2 27:2 29:2 37:1 66:2 76:2 253:0
0 1:6 2:6 4:9 5:3 6:2 9:3 10:8 11:3 23:1 24:2 33:2 34:1 253:0
0 1:12 2:12 4:8 5:4 6:4 9:3 10:5 11:3 14:2 15:2 16:1 20:1 253:0
0 1:15 2:12 3:7 4:4 5:1 6:6 7:11 8:5 9:2 11:1 25:6 29:2 33:2 34:1 37:3 94:3 95:1 253:0
0 1:8 2:7 3:1 4:8 6:8 7:4 8:1 10:2 14:2 15:2 16:1 17:1 19:2 20:1 21:2 25:4 34:3 37:1 69:2 70:2 71:2 112:3 113:3 136:1 253:0
0 1:6 2:6 4:8 5:7 6:2 9:5 10:6 11:4 15:1 20:1 22:1 23:3 24:3 28:2 62:3 63:2 64:2 65:1 84:1 85:1 86:2 93:1 100:1 107:6 253:0
0 1:6 2:6 4:7 5:3 6:4 9:3 10:6 11:1 38:1 39:1 40:1 72:1 253:0
0 1:12 2:12 4:5 5:3 6:4 9:4 10:1 11:6 15:2 16:1 20:3 253:0
0 1:8 2:6 3:4 4:10 5:6 6:5 7:4 8:2 9:8 10:6 11:7 14:1 15:3 16:1 20:1 22:1 23:2 24:1 25:1 28:2 29:1 34:2 35:1 36:1 103:1 111:2 113:1 253:0
0 4:12 10:11 15:1 20:1 22:1 23:1 24:1 253:0
0 1:6 2:6 4:1 6:2 14:4 15:4 16:1 20:1 253:0
0 1:14 2:15 3:3 4:5 5:3 6:9 7:2 8:1 9:4 10:1 11:2 23:1 24:1 25:1 28:1 33:2 34:1 253:0
0 1:12 2:12 4:7 5:3 6:6 9:3 10:3 11:3 12:4 13:1 23:1 24:1 28:1 62:2 63:2 64:4 65:1 92:2 93:1 253:0
0 1:12 2:12 4:6 6:4 10:5 12:3 13:1 15:2 16:1 20:4 23:1 24:2 33:2 34:1 54:1 59:1 60:1 61:2 62:1 63:2 64:2 65:1 92:2 253:0
0 4:20 10:22 12:5 13:2 15:3 20:5 22:1 23:1 24:1 118:2 119:1 253:0
0 1:12 2:12 4:5 5:2 6:4 9:3 10:6 11:3 14:4 15:2 16:1 26:2 27:1 253:0
0 1:12 2:12 4:7 5:4 6:6 9:3 10:4 11:1 14:2 15:2 20:2 23:1 24:1 28:1 253:0
0 1:8 2:7 3:2 4:9 5:4 6:4 7:4 8:2 9:5 10:11 11:4 14:4 15:4 16:2 20:1 23:2 24:1 28:3 29:2 35:1 37:1 103:2 253:0
0 1:6 2:6 26:4 27:2 59:2 60:2 61:4 62:2 63:4 64:4 65:2 92:4 253:0
0 4:21 10:24 15:4 16:1 20:7 22:1 23:2 24:3 34:2 55:1 112:4 113:1 253:0
0 4:4 5:2 7:6 8:3 9:6 10:2 11:3 15:1 36:6 37:3 74:1 75:1 97:2 253:0
0 1:4 2:3 3:2 4:7 5:6 7:2 8:1 9:6 10:6 11:3 14:1 15:2 16:1 20:2 23:2 24:1 26:2 27:1 28:3 35:1 58:2 59:1 60:1 61:2 62:1 63:2 64:2 65:1 103:1 107:1 253:0
0 253:0
0 1:6 2:6 4:9 5:1 6:2 9:3 10:10 11:3 15:3 16:1 20:5 22:1 23:1 24:1 253:0
0 1:12 2:12 4:6 5:3 6:4 7:2 9:3 10:5 11:1 14:2 15:2 16:1 18:1 19:2 20:1 21:1 25:1 36:1 94:2 95:1 136:2 153:1 253:0
0 1:15 2:14 3:2 4:8 5:7 6:7 7:2 8:1 9:6 10:2 11:3 14:4 15:2 16:1 23:2 24:2 25:1 28:2 33:4 34:2 39:1 40:1 66:2 72:1 88:1 89:1 114:1 118:2 119:1 253:0
0 1:12 2:12 4:6 5:7 6:4 9:6 10:1 11:6 15:3 16:1 20:3 22:1 23:1 24:1 26:2 27:1 253:0
0 1:13 2:12 3:2 4:5 5:3 6:4 7:4 8:2 9:5 10:1 11:3 23:1 24:2 25:2 26:2 27:1 29:4 37:1 66:2 74:1 97:1 115:1 116:1 117:1 253:0
0 1:6 2:6 4:3 5:3 6:2 9:5 10:1 11:2 15:1 20:1 22:1 23:2 24:1 26:2 27:1 28:2 29:2 35:1 62:1 63:2 64:2 65:1 84:1 85:1 86:2 92:2 253:0
0 1:6 2:6 4:7 5:7 6:2 9:5 10:5 11:4 14:4 15:5 16:2 20:1 22:1 23:3 24:3 28:2 62:2 93:1 100:1 107:4 253:0
0 1:6 2:6 4:14 5:6 6:2 9:5 10:10 11:4 14:4 15:5 16:2 20:4 23:1 24:1 28:1 253:0
0 1:9 2:8 4:8 5:6 6:5 9:8 10:3 11:5 15:2 20:2 22:2 23:4 24:4 28:2 29:3 38:1 39:1 40:1 42:2 43:1 44:2 72:1 102:1 142:1 253:0
0 1:10 2:9 3:2 4:8 5:7 6:5 7:2 8:1 9:10 10:1 11:7 14:4 15:7 16:3 20:5 23:1 24:1 25:1 28:1 29:2 35:1 38:2 39:3 40:2 72:1 253:0
0 1:6 2:6 4:6 5:4 6:4 9:6 10:4 11:4 12:1 13:1 33:4 34:2 35:1 41:2 98:1 99:2 253:0
0 1:2 3:4 4:3 5:3 6:1 7:4 8:2 9:5 11:4 15:2 16:1 20:2 23:1 24:1 25:1 28:1 35:1 253:0
0 1:6 2:6 4:4 5:2 6:2 9:1 10:2 14:2 15:3 16:1 20:2 22:1 23:1 24:1 34:1 112:1 253:0
0 1:12 2:12 3:2 4:4 6:4 7:2 8:1 10:3 15:1 17:2 18:1 19:2 20:1 21:1 22:1 23:1 24:1 25:1 33:2 34:1 136:1 253:0
0 1:9 2:8 3:2 4:5 6:6 7:2 8:1 9:1 10:2 15:1 20:1 22:1 23:2 24:3 25:2 66:2 253:0
0 1:13 2:14 3:3 4:9 5:5 6:2 7:2 9:6 10:6 11:4 12:3 13:2 14:2 15:2 16:1 20:2 23:2 24:2 28:2 34:2 41:2 66:1 94:2 95:1 96:1 112:4 113:1 253:0
0 1:12 2:12 4:9 5:4 6:4 7:4 8:1 9:5 10:5 11:4 14:2 15:3 16:1 20:4 23:2 24:2 25:4 28:2 29:2 37:2 94:2 95:1 118:2 119:1 253:0
0 1:6 2:6 4:2 6:2 9:1 15:2 16:1 20:2 22:1 23:1 24:1 29:2 253:0
0 1:12 2:12 4:6 6:4 10:4 12:4 13:1 14:4 15:2 50:2 51:6 52:6 53:6 82:2 253:0
0 1:1 3:2 4:3 5:2 6:1 7:4 8:2 9:7 10:1 11:6 15:2 20:3 23:2 24:1 25:1 28:3 29:1 35:1 36:1 37:1 66:2 253:0
0 1:12 2:12 4:8 5:4 6:6 9:4 10:5 11:2 58:2 59:1 60:1 61:2 62:1 63:2 64:2 65:1 92:2 253:0
0 1:6 2:6 4:8 5:3 6:2 7:3 8:1 9:3 10:5 11:3 19:1 21:1 25:3 37:1 69:1 70:1 71:1 136:1 253:0
0 1:13 2:11 3:4 4:2 5:1 6:5 7:4 8:2 9:2 11:1 25:1 33:2 34:1 59:1 60:1 61:2 62:1 63:2 64:2 65:1 92:2 122:2 253:0
0 4:4 5:5 9:5 10:2 11:4 23:2 24:2 28:2 35:1 253:0
0 1:14 2:13 3:2 4:8 5:2 6:11 7:6 8:2 9:3 10:2 11:3 23:1 24:1 25:5 28:1 29:1 36:1 37:2 94:2 95:3 144:2 253:0
0 1:10 2:9 3:2 4:9 5:3 6:6 7:2 8:1 9:3 10:3 11:3 12:5 13:2 15:1 20:1 22:1 23:1 24:1 25:2 253:0
0 1:6 2:6 4:8 5:1 6:2 9:3 10:10 11:3 14:2 15:1 253:0
0 1:8 2:7 3:2 4:13 6:8 7:4 8:2 9:2 10:9 11:1 15:4 16:2 20:5 22:2 23:2 24:1 25:2 28:1 29:2 32:1 37:1 253:0
0 4:3 5:3 9:2 10:1 11:1 15:1 20:1 22:1 23:2 24:2 28:1 62:1 107:1 253:0
0 4:7 5:1 9:1 10:8 15:1 20:1 22:1 23:1 24:1 253:0
0 1:6 2:6 4:1 5:1 6:2 9:1 14:2 15:1 23:1 24:1 28:1 253:0
0 1:6 2:6 4:9 5:2 6:4 9:2 10:9 11:1 14:2 15:2 16:1 20:1 23:1 24:1 28:1 253:0
0 4:5 5:2 9:5 10:2 11:4 12:4 13:2 15:3 16:1 20:4 23:2 24:1 28:3 32:1 35:1 41:1 253:0
0 1:1 3:2 4:1 6:1 7:4 8:2 15:1 20:1 22:1 23:1 24:1 25:1 37:1 253:0
0 1:2 2:1 3:2 4:3 5:2 6:2 7:4 8:2 9:5 11:2 23:1 25:2 27:1 28:2 29:1 35:1 36:1 37:1 76:1 88:1 114:2 116:1 188:1 253:0
0 1:6 2:6 4:7 6:2 10:8 14:2 15:3 16:1 20:4 22:1 23:1 24:1 27:2 76:4 104:1 253:0
0 1:9 2:8 4:8 5:5 6:4 9:7 10:4 11:5 12:2 13:1 14:2 15:1 17:2 18:1 19:2 21:2 23:3 24:5 28:1 29:2 41:2 253:0
0 1:6 2:6 4:3 5:2 6:2 9:1 10:2 14:2 15:2 20:2 253:0
0 1:12 2:12 4:3 5:4 6:4 9:5 10:3 11:4 15:1 23:2 24:1 28:3 32:1 35:1 50:1 51:3 52:3 53:3 82:1 253:0
0 1:6 2:6 4:6 5:4 6:2 9:2 10:4 11:1 14:2 15:3 16:1 20:3 26:2 27:1 253:0
0 1:12 2:12 4:4 5:3 6:8 9:3 11:3 12:1 13:1 253:0
0 1:6 2:6 4:9 5:7 6:2 9:5 10:6 11:4 15:4 16:2 20:2 22:2 23:4 24:4 28:2 55:1 62:2 93:1 100:1 107:4 253:0
0 1:12 2:12 4:2 6:4 12:1 13:1 14:10 15:9 16:4 50:1 51:3 52:3 53:3 62:2 63:2 64:4 65:1 82:1 93:1 106:1 107:1 253:0
0 1:6 2:6 4:5 5:4 6:4 9:5 11:4 23:1 24:1 28:1 29:2 253:0
0 1:6 2:6 4:8 5:5 6:2 9:5 10:4 11:4 14:2 15:3 16:1 20:2 23:1 24:1 28:1 253:0
0 1:6 2:5 3:6 4:9 5:2 6:3 7:8 8:3 9:1 10:9 25:1 37:2 66:1 90:1 91:1 94:2 95:1 96:1 253:0
0 1:12 2:12 4:9 5:7 6:2 9:6 10:7 11:6 15:2 16:1 20:1 22:1 23:2 24:2 28:1 29:2 253:0
0 1:8 2:7 3:1 4:3 5:1 6:5 7:1 9:2 11:1 17:1 19:1 21:1 23:1 24:1 28:1 29:2 34:3 69:1 70:1 71:1 112:3 113:3 253:0
0 1:1 3:2 4:7 6:1 7:4 8:2 9:1 10:8 15:2 16:1 20:2 22:1 23:1 24:1 25:1 37:1 66:2 253:0
0 1:9 2:8 4:3 6:3 10:1 14:2 15:3 16:1 20:2 22:1 23:2 24:3 26:4 27:2 42:2 43:1 44:2 102:1 253:0
0 1:12 2:12 4:1 5:1 6:2 9:4 11:3 23:2 24:1 28:3 29:2 35:1 253:0
0 1:6 2:6 3:4 4:13 5:3 6:2 7:4 8:2 9:3 10:18 11:1 15:1 20:3 23:1 24:1 28:1 29:2 37:1 253:0
0 1:8 2:9 3:3 4:9 5:2 6:3 7:2 8:1 9:4 10:7 11:3 25:1 66:2 253:0
0 1:4 2:2 3:1 4:1 5:1 6:1 7:2 8:1 9:3 11:1 23:1 24:1 28:1 29:1 36:1 42:3 43:2 44:4 45:1 74:1 97:1 102:1 115:1 116:1 117:1 142:2 253:0
0 1:12 2:12 4:15 5:8 6:8 9:5 10:16 11:4 15:1 20:1 22:1 23:2 24:2 28:1 34:3 112:3 113:3 253:0
0 1:6 2:6 4:10 5:1 6:2 9:2 10:13 11:1 14:4 15:5 16:2 20:4 22:2 23:2 24:2 253:0
0 1:6 2:6 4:4 5:3 6:2 9:1 10:4 14:4 15:3 20:1 22:1 23:1 24:1 253:0
0 4:24 10:34 12:5 13:2 15:6 16:2 20:12 23:2 24:4 34:1 55:1 112:2 253:0
0 1:11 2:9 3:5 4:7 5:3 6:8 7:5 8:4 9:5 10:2 11:4 15:4 16:2 20:3 22:1 23:2 24:1 25:2 28:2 32:1 33:4 34:2 37:1 253:0
0 4:25 10:35 12:5 13:2 15:5 16:2 20:8 22:2 23:4 24:6 34:2 112:5 253:0
0 4:2 10:1 15:2 16:1 20:3 46:1 47:1 48:1 49:2 50:1 51:2 52:2 53:1 151:1 253:0
0 1:6 2:6 4:9 5:3 6:8 9:3 10:7 11:1 38:1 39:1 40:1 72:1 253:0
0 1:6 2:6 4:5 5:4 6:2 9:3 10:4 11:1 15:1 20:2 26:4 27:2 29:2 253:0
0 1:12 2:12 4:11 5:8 6:6 9:5 10:6 11:4 14:4 15:7 16:3 20:3 22:2 23:3 24:3 28:1 253:0
0 1:6 2:6 4:4 5:3 6:2 9:3 10:2 11:3 14:2 15:2 16:1 23:2 24:2 28:2 253:0
0 1:12 2:12 4:7 5:6 6:4 9:6 10:3 11:6 15:5 16:2 20:6 253:0
0 1:6 2:6 4:15 6:4 10:22 14:2 15:4 20:6 253:0
0 1:12 2:12 4:15 5:3 6:12 9:1 10:12 14:4 15:8 16:2 20:9 23:3 24:6 55:1 253:0
0 1:3 2:2 4:23 6:2 10:37 15:3 17:2 18:1 19:2 20:8 253:0
0 1:12 2:12 4:4 5:1 6:4 9:2 11:1 12:2 13:1 14:4 15:5 16:2 20:2 22:1 23:2 24:2 28:1 29:2 118:1 119:1 253:0
0 1:9 2:10 3:3 4:13 5:3 6:5 7:2 8:1 9:3 10:9 11:3 12:6 13:2 15:4 16:1 20:8 22:1 23:2 24:2 25:1 28:1 40:1 41:1 72:1 73:1 74:1 75:1 253:0
0 4:5 10:4 15:5 20:9 23:1 24:1 253:0
0 1:12 2:12 4:9 5:5 6:4 9:7 10:7 11:4 14:2 15:4 16:2 20:2 22:1 23:2 24:1 26:2 27:1 28:2 29:2 32:1 33:2 34:1 253:0
0 4:6 5:3 9:5 10:4 11:4 15:6 16:1 20:9 23:1 28:2 32:2 35:1 253:0
0 1:12 2:12 4:4 5:3 9:6 10:4 11:6 29:4 62:2 92:4 93:1 253:0
0 1:12 2:12 4:3 5:2 6:4 9:4 10:1 11:1 26:2 27:1 29:2 38:2 39:1 40:2 72:3 73:1 74:1 97:1 253:0
0 4:15 5:1 9:2 10:16 11:1 12:3 13:1 15:8 16:4 20:13 22:1 23:2 24:1 27:1 28:2 32:1 76:1 253:0
0 1:9 2:10 3:3 4:4 5:3 7:2 8:1 9:3 10:3 11:1 14:2 15:2 16:1 29:2 253:0
0 1:12 2:12 4:10 5:5 6:6 9:5 10:6 11:4 12:3 13:1 14:4 15:3 16:1 20:3 23:1 24:1 28:1 253:0
0 4:9 10:6 15:11 16:5 20:20 55:3 59:1 61:2 63:2 65:1 83:1 84:1 86:2 158:1 253:0
0 1:6 2:6 4:3 5:2 6:2 9:1 10:2 14:2 15:2 20:1 22:1 23:1 24:1 253:0
0 1:13 2:10 3:6 4:5 5:2 6:8 7:10 8:5 9:4 11:2 25:4 26:4 27:2 29:1 36:3 37:2 90:1 91:1 253:0
0 1:6 2:6 3:4 7:4 8:1 9:1 36:2 37:1 74:2 94:2 95:1 105:3 220:1 253:0
0 1:12 2:12 4:10 5:5 6:2 9:8 10:8 11:7 14:4 15:4 16:2 20:2 23:1 28:2 29:4 35:1 253:0
0 4:5 5:3 9:2 10:4 11:1 15:4 20:7 253:0
0 1:7 2:5 3:4 4:8 5:2 6:1 7:4 8:1 9:6 10:12 11:3 23:2 24:2 25:1 28:2 29:4 36:2 62:2 63:2 64:4 65:1 92:2 93:1 94:2 95:1 253:0
0 1:6 2:6 4:3 5:2 6:2 9:4 10:1 11:2 12:2 13:1 23:2 24:2 28:2 35:1 41:2 62:2 92:2 93:1 253:0
0 1:6 2:4 3:4 4:14 5:5 6:5 7:4 8:1 9:5 10:15 11:2 23:2 24:2 25:1 26:2 27:1 28:2 29:1 36:1 66:1 94:2 95:1 96:1 253:0
0 1:4 2:3 3:2 4:14 5:3 6:3 7:2 8:1 9:3 10:15 11:3 12:4 13:2 14:2 15:5 16:2 20:3 22:1 23:2 24:3 25:1 26:1 27:1 41:2 132:1 253:0
0 1:12 2:12 4:3 5:2 6:4 9:4 10:1 11:3 15:1 20:1 23:1 24:1 26:2 27:1 28:1 29:2 32:1 38:1 40:1 72:2 253:0
0 1:17 2:16 3:4 4:3 6:7 7:3 14:2 15:2 16:1 20:1 25:1 62:2 63:2 64:4 65:1 92:2 93:1 94:4 95:2 144:1 253:0
0 1:6 2:6 4:9 6:4 9:1 10:9 23:3 24:6 29:2 34:3 74:1 97:1 112:3 113:3 115:1 116:1 117:1 253:0
0 1:8 2:9 3:3 4:8 5:6 6:5 7:2 8:1 9:4 10:6 11:3 23:1 24:1 25:1 28:1 33:2 34:1 40:1 72:2 88:1 89:1 114:1 253:0
0 1:12 2:10 3:4 4:6 5:2 6:10 7:4 8:1 9:5 10:1 11:3 14:2 15:2 16:1 20:2 23:1 24:1 25:2 28:1 29:1 33:2 34:1 36:1 66:1 90:1 91:1 94:2 95:1 96:1 253:0
0 1:12 2:12 4:3 6:4 10:1 12:2 13:1 14:8 15:6 16:1 20:2 23:1 24:2 54:2 253:0
0 1:17 2:17 3:5 4:3 5:1 6:4 7:4 8:1 9:2 11:1 12:2 13:1 23:1 24:1 25:2 28:1 62:2 92:4 93:1 94:2 95:1 253:0
0 1:12 2:10 3:4 4:4 5:3 6:3 7:4 8:1 9:6 10:1 11:2 15:1 23:1 24:1 25:1 26:2 27:1 28:1 29:6 36:2 66:1 74:1 75:1 94:2 95:1 96:1 97:1 253:0
0 1:14 2:13 3:1 4:10 5:5 6:12 7:1 9:5 10:3 11:4 14:4 15:4 16:1 17:1 19:1 20:2 21:1 23:1 24:1 25:1 28:1 69:1 70:1 71:1 253:0
0 1:12 2:12 4:10 5:6 6:6 9:6 10:8 11:6 15:2 16:1 20:2 22:1 23:1 28:1 32:1 253:0
0 4:2 5:2 9:1 10:1 15:1 20:1 22:1 23:1 24:1 62:1 107:1 253:0
0 4:3 5:3 9:3 10:1 11:1 50:1 51:2 52:2 53:1 62:1 107:1 145:1 146:1 147:2 148:1 253:0
0 1:12 2:12 4:10 5:2 6:4 9:3 10:5 11:1 12:8 13:3 15:6 16:3 20:5 22:2 23:2 24:2 29:2 41:2 74:1 97:1 115:1 116:1 117:1 253:0
0 4:5 5:2 9:5 10:3 11:4 12:1 13:1 15:4 16:1 20:6 23:2 24:1 28:3 31:1 32:1 35:1 41:1 124:1 173:1 253:0
0 1:6 2:6 4:11 5:4 6:2 9:3 10:9 11:3 14:4 15:7 16:3 20:5 253:0
0 1:12 2:12 4:5 5:2 6:2 9:6 10:3 11:3 14:2 15:1 23:1 26:2 27:1 28:2 29:4 33:2 34:1 35:1 62:2 63:2 64:4 65:1 92:2 93:1 107:2 253:0
0 1:6 2:6 4:5 5:2 6:2 9:2 10:2 11:1 15:1 20:1 22:1 23:1 24:1 58:2 59:1 60:1 61:2 62:1 63:2 64:2 65:1 92:2 253:0
0 4:3 10:2 15:4 20:6 22:1 23:1 24:1 253:0
0 1:12 2:10 3:4 4:4 5:1 6:2 7:4 8:1 9:3 10:1 11:1 14:6 15:5 16:2 20:3 23:1 24:1 28:1 29:1 36:1 62:2 63:2 64:4 65:1 66:1 92:1 93:1 94:2 95:1 96:1 107:1 110:1 253:0
0 1:6 2:4 3:4 4:6 5:4 6:5 7:6 8:3 9:7 11:6 15:4 16:2 20:4 25:1 29:2 34:3 36:4 37:1 112:3 113:3 253:0
0 1:8 2:7 3:1 4:3 5:2 6:4 7:1 9:2 17:1 19:1 21:1 23:1 24:1 25:1 28:1 69:1 70:1 71:1 88:1 114:2 253:0
0 4:10 5:1 9:1 10:15 15:1 20:1 22:1 23:1 24:1 253:0
0 1:6 2:6 4:5 5:4 6:2 9:5 10:4 11:2 14:2 15:2 20:2 23:1 28:2 29:2 35:1 253:0
0 1:12 2:12 4:7 5:6 6:4 9:6 10:3 11:6 15:3 16:1 20:4 253:0
0 1:9 2:8 4:6 6:8 10:3 17:2 18:1 19:2 21:2 23:3 24:6 253:0
0 1:16 2:15 3:2 4:3 6:5 7:2 8:1 10:3 14:4 15:2 25:1 63:4 65:2 83:2 84:4 86:8 137:2 253:0
0 4:4 5:3 9:4 10:3 11:1 15:2 16:1 20:1 22:1 23:1 24:1 35:1 39:2 40:1 74:1 88:1 114:1 116:1 117:1 188:1 221:1 253:0
0 1:2 2:1 3:2 7:4 8:2 37:1 253:0
0 1:12 2:12 4:7 5:7 6:6 9:7 10:1 11:6 12:1 13:1 14:2 15:1 23:1 24:1 28:1 40:1 72:1 88:1 89:1 114:1 253:0
0 1:6 2:6 4:10 5:2 6:6 9:3 10:4 11:3 12:4 13:2 14:2 15:4 16:1 20:3 22:2 23:4 24:6 29:2 41:1 54:1 253:0
0 1:6 2:6 4:8 5:4 6:2 7:3 8:1 9:5 10:4 11:4 19:1 25:2 36:1 37:1 69:1 70:1 71:1 136:1 153:1 253:0
0 1:6 2:6 4:7 5:1 6:4 9:1 10:4 15:3 16:1 20:2 34:3 40:1 72:2 73:1 74:1 75:1 112:3 113:3 253:0
0 1:6 2:6 4:12 5:7 6:4 9:4 10:10 11:3 14:2 15:2 16:1 20:1 23:1 24:1 28:1 33:2 34:1 253:0
0 1:6 2:6 4:12 5:5 6:8 9:4 10:8 11:2 14:4 15:3 16:1 20:3 23:1 24:1 28:1 253:0
0 1:12 2:12 3:4 4:13 5:3 6:4 7:2 9:1 10:15 12:3 13:1 14:2 15:2 16:1 20:1 23:1 24:2 66:1 94:2 95:2 96:1 144:1 253:0
0 1:6 2:6 4:4 6:2 9:1 10:2 15:2 16:1 20:2 22:1 23:1 24:1 29:2 253:0
0 1:2 2:1 3:2 4:2 5:1 6:1 7:2 9:1 10:1 25:1 94:2 95:1 253:0
0 1:12 2:12 3:5 4:5 5:3 6:7 7:4 8:2 9:3 11:3 14:1 15:3 16:1 20:2 25:1 90:1 91:1 103:1 253:0
0 1:6 2:6 4:3 5:3 6:2 9:4 11:1 14:2 15:2 16:1 20:1 26:2 27:1 29:2 38:1 39:1 40:1 58:1 59:1 60:1 61:2 62:1 63:2 64:2 65:1 72:1 253:0
0 1:6 2:6 4:9 5:4 6:4 9:5 10:4 11:4 12:6 13:3 14:2 15:2 16:1 20:3 23:2 24:2 28:2 34:3 41:2 74:1 97:2 112:3 113:3 253:0
0 1:7 2:6 3:4 4:11 5:6 6:1 7:6 8:3 9:5 10:10 11:2 15:2 20:4 23:1 24:1 26:2 27:1 28:1 29:1 36:1 37:2 42:2 43:1 44:2 66:2 102:1 253:0
0 1:12 2:12 4:5 5:3 6:2 9:6 10:3 11:6 23:1 24:2 29:4 62:2 92:4 93:1 253:0
0 1:13 2:12 3:7 4:5 5:1 6:5 7:6 8:1 9:1 10:1 12:2 13:1 14:2 15:3 16:1 20:3 25:1 26:4 27:2 66:1 94:4 95:2 96:1 253:0
0 1:13 2:14 3:3 4:5 5:2 7:4 8:2 9:5 10:5 11:4 14:6 15:6 16:3 20:1 26:2 27:1 29:3 36:1 37:1 253:0
0 1:6 2:6 4:5 6:2 10:4 15:2 20:3 22:1 23:1 24:1 40:1 72:2 73:1 74:1 75:1 253:0
0 1:6 2:6 4:6 6:4 10:4 14:2 15:1 253:0
0 1:12 2:12 4:7 5:4 6:6 9:3 10:4 11:1 14:2 15:2 20:2 23:1 24:1 28:1 253:0
0 1:12 2:12 4:4 5:1 6:6 9:2 10:3 11:1 14:2 15:2 16:1 23:1 24:1 26:2 27:1 28:1 29:2 34:4 112:6 113:3 253:0
0 1:16 2:15 3:2 4:3 5:1 6:4 7:2 8:1 9:2 11:1 12:2 13:1 14:2 15:2 16:1 23:1 24:1 28:1 29:2 58:2 59:1 60:1 61:2 62:1 63:2 64:2 65:1 74:1 92:2 105:2 253:0
0 4:10 5:6 9:4 10:10 11:2 40:2 72:4 73:2 74:2 253:0
0 4:24 10:35 12:5 13:2 15:3 16:1 20:6 22:1 23:3 24:5 34:1 112:3 253:0
0 4:21 10:32 12:5 13:2 15:1 20:3 23:1 24:2 253:0
0 1:12 2:12 4:1 6:2 9:1 14:4 15:3 16:1 20:1 22:1 23:1 24:1 29:2 253:0
0 4:27 10:41 12:5 13:2 15:3 16:1 20:4 22:1 23:3 24:5 27:1 34:1 76:3 112:2 253:0
0 1:6 2:6 9:3 23:1 28:2 29:2 35:1 88:1 114:2 253:0
0 1:11 2:14 4:2 5:2 9:3 11:3 27:2 29:2 76:2 253:0
0 1:12 2:12 4:6 5:3 6:6 9:3 10:4 11:3 14:4 15:4 16:2 26:2 27:1 253:0
0 1:6 2:6 4:11 5:7 6:4 9:6 10:7 11:6 14:4 15:6 16:3 20:3 22:1 23:2 24:2 28:1 253:0
0 1:12 2:12 4:2 5:1 6:2 9:2 26:2 27:1 29:2 38:1 39:1 40:1 58:1 59:2 60:2 61:4 62:4 63:4 64:4 65:2 72:1 92:4 93:1 107:2 253:0
0 1:13 2:14 3:3 7:4 8:2 9:2 11:1 14:6 15:5 16:2 29:3 36:1 37:1 253:0
0 1:12 2:12 4:4 5:2 9:2 10:2 11:1 14:10 15:10 16:5 20:4 55:1 253:0
0 4:9 5:2 9:4 10:12 11:2 12:1 13:1 23:3 24:2 28:4 35:1 253:0
0 1:12 2:12 4:10 5:4 6:2 9:6 10:8 11:6 15:1 20:1 23:1 24:2 29:4 62:2 92:4 93:1 253:0
0 4:6 5:1 9:3 10:4 11:3 15:7 16:1 20:11 22:2 23:2 24:2 253:0
0 1:6 2:6 4:3 5:2 6:2 9:1 10:2 253:0
0 1:7 2:6 3:2 4:3 5:1 6:3 7:4 8:2 9:2 10:1 11:1 12:3 13:1 14:2 15:2 16:1 23:1 24:1 25:1 28:1 29:2 37:1 253:0
0 1:6 2:6 4:15 10:12 12:4 13:2 14:2 15:8 16:3 20:11 22:1 23:1 24:1 26:2 27:1 253:0
0 1:13 2:13 3:5 4:3 6:3 7:4 8:2 9:2 10:1 11:1 14:2 15:3 16:1 20:3 25:1 29:1 34:1 36:1 112:1 253:0
0 1:9 2:7 3:4 4:7 5:4 6:7 7:6 8:2 9:7 10:1 11:6 23:2 24:1 25:3 28:3 29:1 34:3 35:1 36:1 37:1 66:1 94:2 95:1 96:1 112:3 113:3 253:0
0 1:10 2:9 3:6 4:1 6:1 7:6 8:3 14:6 15:6 16:3 25:1 34:2 37:1 62:2 63:1 64:2 93:1 107:1 110:2 111:2 113:1 253:0
0 1:12 2:12 4:4 5:2 6:2 9:6 10:3 11:6 29:4 62:2 90:1 91:1 92:4 93:1 253:0
0 1:12 2:12 4:5 5:3 6:4 9:2 10:3 11:1 14:2 15:2 16:1 26:2 27:1 253:0
0 4:11 5:10 9:7 10:10 11:6 15:1 20:2 23:3 24:3 28:3 253:0
0 1:9 2:9 3:4 4:9 5:7 6:3 7:4 8:2 9:8 10:5 11:7 23:1 24:1 28:1 36:1 42:1 43:1 44:2 45:1 102:1 142:1 253:0
0 1:12 2:12 4:6 5:2 9:4 10:5 11:2 12:3 13:1 23:2 24:2 28:2 29:4 88:1 114:4 253:0
0 1:18 2:18 4:9 6:6 10:4 15:11 16:5 20:15 55:1 253:0
0 1:9 2:10 3:7 4:6 5:3 6:1 7:6 8:3 9:3 10:3 11:3 14:2 15:2 16:1 20:2 25:1 37:1 90:1 91:1 253:0
0 1:4 2:2 3:3 4:7 5:2 6:1 7:3 9:6 10:6 11:4 17:1 19:1 23:1 25:1 28:2 29:1 34:3 35:1 36:1 62:2 63:2 64:4 65:1 66:1 69:1 70:1 71:1 92:2 93:1 94:2 95:1 96:1 107:2 112:4 113:1 180:1 253:0
0 1:7 2:6 3:2 4:3 5:1 6:2 7:4 8:2 9:2 10:1 14:2 15:6 16:3 20:4 29:1 34:3 36:1 37:1 66:2 74:1 97:1 103:2 111:3 113:3 115:1 116:1 117:1 253:0
0 1:6 2:6 4:2 5:4 9:8 11:7 14:2 15:2 16:1 22:1 23:1 28:1 29:4 32:1 253:0
0 1:12 2:12 4:5 5:1 6:6 9:3 10:2 11:3 12:3 13:1 62:2 92:2 93:1 107:1 253:0
0 4:6 5:2 9:5 10:8 11:4 23:3 24:2 28:4 35:1 253:0
0 1:10 2:10 3:7 4:9 6:2 7:9 8:4 9:1 10:10 14:2 15:3 16:1 20:1 22:1 23:1 24:1 25:4 29:1 36:1 37:2 94:3 95:1 253:0
0 1:15 2:14 3:2 4:2 5:1 6:5 7:2 8:1 9:2 11:1 14:2 15:2 16:1 25:1 33:6 34:3 59:1 60:1 61:2 62:1 63:2 64:2 65:1 92:2 122:2 253:0
0 1:8 2:7 3:1 4:1 6:1 7:1 9:2 17:1 19:1 21:1 29:3 36:1 58:1 59:1 60:1 61:2 62:1 63:2 64:2 65:1 69:1 70:1 71:1 92:2 253:0
0 1:10 2:9 3:2 4:9 5:8 6:6 7:2 8:1 9:7 10:4 11:5 15:1 20:1 23:3 24:3 28:3 29:1 34:3 36:1 112:3 113:3 253:0
0 1:8 2:7 3:5 4:6 5:3 7:8 8:4 9:3 10:3 14:2 15:5 16:2 20:5 22:1 23:1 24:1 29:1 36:1 37:3 47:1 48:1 49:1 50:1 51:1 52:1 66:2 77:1 78:1 80:1 81:1 82:1 151:1 222:1 253:0
0 1:8 2:7 3:2 4:10 5:2 6:8 7:2 9:4 10:7 11:1 23:1 28:2 29:2 35:1 58:1 59:1 60:1 61:2 62:1 63:2 64:2 65:1 66:1 92:1 94:2 95:1 96:1 110:1 253:0
0 1:12 2:12 4:2 5:2 9:6 10:1 11:6 23:2 24:2 26:2 27:1 28:2 29:6 253:0
0 1:12 2:12 4:3 6:4 9:2 10:1 11:1 15:1 20:1 22:1 23:1 24:1 26:2 27:1 29:4 33:2 34:1 253:0
0 1:16 2:13 3:9 4:10 6:10 7:9 8:4 10:8 15:1 17:1 19:1 20:3 21:1 25:5 37:1 69:1 70:1 71:1 253:0
0 4:6 5:2 9:1 10:5 253:0
0 1:14 2:13 3:2 4:2 5:1 7:4 8:2 9:6 11:3 12:1 13:1 14:2 15:4 16:2 20:2 23:1 24:1 28:1 29:7 33:2 34:1 36:3 37:1 253:0
0 4:5 5:4 9:4 10:1 11:2 15:1 20:1 27:3 50:1 51:1 52:1 76:3 77:4 78:2 79:1 80:2 81:2 82:1 253:0
0 27:2 47:2 48:2 49:4 50:2 51:4 52:4 53:2 104:1 166:1 223:4 253:0
0 1:8 2:9 3:3 4:8 5:7 6:4 7:2 8:1 9:8 10:4 11:7 12:3 13:1 23:1 28:2 35:1 253:0
0 1:8 2:6 3:4 4:5 5:6 6:2 7:4 8:2 9:8 10:1 11:5 13:1 23:2 24:2 25:2 27:1 28:2 33:2 34:3 38:1 39:1 40:1 41:2 72:1 112:4 113:1 133:1 224:1 253:0
0 1:6 2:6 4:10 5:8 6:2 9:8 10:6 11:7 12:4 13:2 15:1 20:1 23:3 24:4 28:2 33:6 34:3 41:2 54:1 253:0
0 4:3 5:1 9:3 10:1 11:3 12:3 13:2 15:1 20:1 23:1 24:2 41:2 54:1 253:0
0 1:6 2:6 4:13 5:3 6:2 9:3 10:15 11:3 15:1 20:1 22:1 23:2 24:2 28:1 253:0
0 1:12 2:12 3:4 4:6 5:5 6:2 7:4 8:2 9:7 10:4 11:5 23:1 25:2 28:2 29:2 35:1 37:1 90:1 91:1 253:0
0 1:6 2:6 4:4 10:3 14:2 15:4 16:2 20:5 22:1 23:1 24:1 26:2 27:1 253:0
0 1:14 2:12 3:4 4:3 6:8 7:4 8:2 25:2 26:2 27:1 62:2 63:2 64:4 65:1 92:2 93:1 253:0
0 4:7 5:3 9:3 10:6 11:3 15:2 16:1 20:3 22:1 23:1 24:1 253:0
0 1:13 2:12 3:6 4:2 5:2 6:4 7:8 8:4 9:1 10:1 26:2 27:1 37:2 66:2 253:0
0 1:9 2:10 3:3 4:9 5:3 6:3 7:2 8:1 9:4 10:6 11:3 12:6 13:2 15:3 16:1 20:5 22:1 23:2 24:2 25:1 28:1 29:2 41:1 253:0
0 1:2 2:1 3:2 4:14 5:8 7:4 8:2 9:9 10:14 11:9 23:2 24:2 28:2 36:2 37:1 253:0
0 1:10 2:8 3:5 4:4 5:2 6:5 7:5 8:2 9:3 11:3 23:1 24:1 25:1 28:1 29:2 37:1 90:1 91:1 94:3 95:1 253:0
0 1:6 2:6 4:8 5:9 6:2 9:6 10:6 11:4 15:1 20:1 22:1 23:3 24:3 28:2 62:2 93:1 100:1 107:4 253:0
0 1:6 2:6 4:12 5:6 6:2 9:7 10:9 11:4 12:2 13:1 14:2 15:2 16:1 20:1 23:1 24:1 28:1 29:4 74:1 97:1 115:1 116:1 117:1 253:0
0 1:12 2:12 4:8 5:5 6:8 9:5 10:3 11:4 12:3 13:1 14:8 15:9 16:4 20:1 23:2 24:3 28:1 41:1 55:1 253:0
0 1:12 2:12 4:4 6:6 9:1 10:2 15:1 20:1 22:1 23:2 24:3 29:2 30:2 31:1 253:0
0 1:16 2:18 3:3 4:8 5:6 6:5 7:2 8:1 9:7 10:3 11:6 17:3 18:1 19:2 21:1 23:1 24:1 28:1 29:2 90:1 91:1 253:0
0 1:7 2:6 3:2 4:1 7:4 8:2 9:2 14:2 15:2 16:1 20:1 25:2 29:1 36:1 37:1 62:2 66:2 74:1 92:2 93:1 97:1 115:1 116:1 117:1 253:0
0 1:12 2:12 4:5 6:4 10:2 12:6 13:2 14:4 15:2 253:0
0 1:6 2:6 4:8 5:9 6:2 9:6 10:6 11:4 15:1 20:1 22:1 23:3 24:3 28:2 62:2 93:1 100:1 107:4 127:1 128:2 216:1 253:0
0 1:11 2:14 4:4 5:3 6:2 9:2 10:2 11:1 15:1 20:2 253:0
0 1:6 2:6 4:3 5:3 6:2 9:6 10:1 11:6 14:2 15:2 16:1 22:1 23:1 28:1 32:1 253:0
0 1:6 2:6 4:14 5:7 6:2 9:6 10:13 11:6 15:2 16:1 20:4 23:1 24:1 26:4 27:2 28:1 253:0
0 1:6 2:6 4:8 5:5 6:4 9:4 10:4 11:2 12:2 13:1 14:2 15:2 20:2 23:1 24:1 28:1 29:2 253:0
0 1:16 2:16 3:5 4:3 5:2 6:3 7:6 8:3 9:6 11:4 14:3 15:2 16:1 25:1 29:2 36:2 37:1 58:1 59:1 60:1 61:2 62:1 63:2 64:2 65:1 103:1 107:1 253:0
0 4:23 10:32 12:5 13:2 15:5 16:2 20:8 22:2 23:3 24:4 27:2 76:2 104:1 253:0
0 4:11 5:4 9:3 10:8 11:3 15:5 16:1 20:8 253:0
0 225:1 253:0
0 1:6 2:6 4:8 5:4 6:2 9:2 10:6 11:1 14:2 15:3 16:1 20:3 62:2 92:2 93:1 107:1 253:0
0 1:7 2:8 3:3 4:6 5:5 7:4 8:2 9:7 10:3 11:6 14:4 15:6 16:3 20:3 23:1 24:1 28:1 29:1 36:3 37:1 253:0
0 1:5 2:3 3:3 4:6 5:4 6:2 7:4 8:2 9:8 10:4 11:7 12:2 13:1 15:3 16:1 20:3 22:1 23:2 24:3 29:2 36:3 41:1 42:1 43:1 44:2 45:1 142:1 253:0
0 1:6 2:6 4:8 5:2 6:2 9:2 10:14 11:1 15:2 16:1 20:1 26:4 27:2 253:0
0 1:12 2:12 4:3 5:2 6:4 9:4 10:1 11:3 15:1 20:1 23:1 24:1 26:4 27:2 28:1 29:2 32:1 38:1 40:1 72:2 253:0
0 1:9 2:8 3:2 4:5 5:1 6:6 7:2 8:1 9:2 10:1 11:1 12:3 13:1 23:1 24:1 25:2 28:1 29:2 253:0
0 1:18 2:18 4:10 5:7 6:8 9:4 10:7 11:2 15:1 20:1 22:1 23:3 24:3 28:2 33:2 34:1 253:0
0 1:10 2:10 3:5 4:9 5:6 6:7 7:6 8:3 9:4 10:6 11:2 25:1 34:3 36:2 37:1 47:3 48:3 50:1 90:1 91:1 112:3 113:3 150:3 160:2 253:0
0 4:22 10:25 12:5 13:2 15:5 16:2 20:8 22:2 23:2 24:2 253:0
0 1:12 2:12 4:4 5:3 6:4 9:3 10:2 11:1 23:1 24:1 26:2 27:1 28:1 29:2 59:1 60:1 61:2 62:1 63:2 64:2 65:1 88:1 92:2 114:3 253:0
0 1:6 2:6 4:6 5:4 6:4 9:2 10:4 11:1 14:2 15:3 20:3 253:0
0 1:10 2:8 3:4 4:7 5:4 6:7 7:4 9:3 10:2 11:1 15:1 20:2 23:1 24:1 25:3 26:2 27:1 28:1 66:1 90:1 91:1 94:4 95:2 96:1 253:0
0 4:5 5:2 7:2 9:4 10:2 11:3 12:6 13:3 23:1 24:1 25:2 28:1 37:1 38:1 39:1 40:1 41:2 72:1 94:2 95:3 144:2 253:0
0 1:4 2:2 3:7 4:4 5:5 7:10 8:4 9:9 10:2 11:5 12:1 13:1 14:1 15:2 16:1 23:1 24:1 28:1 29:3 34:1 36:3 37:3 66:3 94:2 95:1 96:1 103:1 112:2 253:0
0 1:14 2:15 3:3 4:7 5:3 6:3 7:2 8:1 9:2 10:5 15:1 20:1 22:1 23:1 24:1 25:1 33:2 34:1 58:1 59:1 60:1 61:2 62:1 63:2 64:2 65:1 66:2 92:2 253:0
0 1:1 3:2 4:2 5:1 7:4 8:2 9:2 10:1 15:1 20:2 34:1 36:2 37:1 66:2 74:1 97:1 112:1 115:1 116:1 117:1 253:0
0 1:1 3:1 4:12 5:7 6:1 7:2 8:1 9:5 10:10 11:4 12:5 13:2 15:2 20:3 22:1 23:2 24:2 25:1 28:1 41:1 42:1 43:1 44:2 45:1 62:2 93:1 106:1 107:1 110:1 121:1 253:0
0 1:7 2:6 3:2 4:5 5:5 6:3 7:4 8:2 9:9 10:2 11:7 23:2 24:1 25:1 28:3 29:1 35:1 36:1 37:1 66:2 253:0
0 1:12 2:12 4:5 6:4 9:2 11:1 12:2 13:1 14:2 15:6 16:3 20:5 29:2 34:1 112:1 253:0
0 1:14 2:15 3:3 4:3 6:2 7:2 8:1 10:2 14:4 15:5 16:2 20:1 22:1 23:1 24:1 59:1 60:1 61:2 62:1 63:2 64:2 65:1 92:2 122:2 253:0
0 1:12 2:12 4:11 5:4 6:6 9:3 10:13 11:3 14:2 15:1 253:0
0 4:19 10:26 12:5 13:2 15:2 16:1 20:4 22:1 23:2 24:3 253:0
0 1:9 2:10 3:3 4:6 5:5 7:2 8:1 9:5 10:3 11:4 15:1 20:1 26:2 27:1 29:2 253:0
0 1:6 2:6 14:4 15:2 253:0
0 1:1 3:1 4:6 5:6 6:1 7:2 8:1 9:6 10:2 11:4 12:2 13:1 15:2 20:1 22:1 23:3 24:3 25:1 28:2 36:1 40:1 41:1 42:1 43:1 44:2 45:1 62:2 72:2 73:1 74:1 75:1 93:1 100:1 107:2 142:1 253:0
0 1:12 2:12 4:1 5:1 6:2 9:2 11:1 14:2 15:1 23:1 24:1 28:1 29:2 30:4 31:2 253:0
0 1:8 2:7 3:2 4:8 5:6 6:4 7:2 9:9 10:2 11:5 14:2 15:2 16:1 20:1 23:1 24:1 25:2 28:1 29:2 38:1 39:1 40:1 58:2 59:1 60:1 61:2 62:1 63:2 64:2 65:1 66:1 72:1 92:2 94:2 95:1 96:1 253:0
0 1:12 2:10 3:4 4:6 5:2 6:4 7:6 8:3 9:6 10:5 11:3 14:2 15:2 16:1 23:2 24:2 25:2 28:2 29:5 33:2 34:1 36:1 37:1 253:0
0 4:9 5:2 9:2 10:10 11:1 253:0
0 1:6 2:6 4:4 5:3 9:2 10:2 11:1 14:4 15:4 16:1 20:3 253:0
0 4:9 5:2 9:5 10:11 11:4 12:3 13:1 23:3 24:2 28:4 35:1 253:0
0 4:4 10:2 15:5 16:2 20:6 55:1 68:1 167:2 253:0
0 1:12 2:12 4:7 6:4 10:8 14:4 15:2 253:0
0 1:11 2:14 4:3 5:2 6:4 9:3 11:3 14:2 15:3 16:1 20:1 22:1 23:1 24:1 34:3 98:1 99:1 112:3 113:3 152:1 253:0
0 1:10 2:9 3:2 4:9 5:3 6:4 7:2 8:1 9:5 10:7 11:2 12:3 13:1 15:1 20:1 22:1 23:1 24:1 29:2 35:1 38:1 39:2 40:1 91:1 157:1 253:0
0 1:6 2:6 4:7 5:3 6:2 9:3 10:4 11:3 14:2 15:2 16:1 20:1 23:1 24:1 28:1 40:1 72:2 73:1 74:1 253:0
0 1:12 2:12 4:5 6:6 10:5 23:2 24:4 26:2 27:1 253:0
0 4:24 10:37 12:3 13:1 15:1 20:2 23:2 24:4 253:0
0 1:16 2:16 3:4 4:8 5:6 6:6 7:6 8:3 9:5 10:5 11:3 14:2 15:2 16:1 20:1 29:1 36:1 37:2 66:2 253:0
0 1:6 2:6 4:10 5:3 6:2 9:3 10:7 11:3 14:2 15:2 16:1 20:1 23:1 24:2 253:0
0 1:15 2:15 3:5 4:3 6:3 7:6 8:2 9:2 10:1 11:1 15:1 20:2 25:3 29:2 33:2 34:1 36:2 37:1 94:2 95:1 253:0
0 1:19 2:22 3:4 4:10 5:3 6:14 7:2 8:1 9:3 10:3 11:1 15:3 16:1 20:4 23:1 24:1 28:1 66:2 253:0
0 1:12 2:12 4:8 5:5 6:4 9:6 10:4 11:4 14:4 15:6 16:3 20:3 22:1 23:1 26:2 27:1 28:1 29:2 32:1 40:1 72:1 88:1 89:1 114:2 141:1 253:0
0 1:12 2:12 4:3 5:5 6:2 9:9 11:7 26:2 27:1 29:6 38:1 39:1 40:1 72:1 253:0
0 1:12 2:12 4:6 5:3 6:4 9:6 10:2 11:6 12:3 13:1 15:1 20:1 23:2 24:2 28:2 29:4 54:1 253:0
0 1:12 2:12 4:8 5:1 6:4 9:3 10:5 11:3 14:4 15:7 16:3 20:5 22:2 23:2 24:2 253:0
0 1:8 2:7 3:2 4:2 6:3 7:4 8:2 10:1 14:1 15:1 25:1 37:1 62:1 103:1 110:2 253:0
0 1:6 2:6 4:2 5:3 9:7 11:5 12:2 13:1 23:1 24:1 28:1 29:2 41:2 62:1 63:2 64:2 65:1 84:1 85:1 86:2 88:1 100:1 114:4 253:0
0 1:6 2:6 4:11 5:4 6:6 7:6 8:3 9:6 10:8 11:3 23:1 24:1 25:2 28:1 34:3 36:4 37:3 90:1 91:1 112:3 113:3 253:0
0 1:14 2:13 3:6 4:4 6:6 7:8 8:4 9:1 10:1 23:1 24:2 25:2 26:2 27:1 29:2 34:3 37:2 58:1 59:1 60:1 61:2 62:1 63:2 64:2 65:1 92:2 112:3 113:3 253:0
0 1:12 2:12 4:4 5:6 6:4 9:6 10:1 11:6 253:0
0 1:12 2:12 4:7 5:2 6:4 9:2 10:4 14:4 15:4 16:2 20:2 39:2 40:2 72:2 253:0
0 1:10 2:9 3:2 4:2 6:4 7:2 8:1 9:2 11:1 15:1 20:1 22:1 23:1 24:1 29:3 34:3 36:1 112:3 113:3 253:0
0 1:6 2:6 4:11 5:6 6:2 9:8 10:9 11:7 12:2 13:1 14:2 15:3 16:1 20:1 22:1 23:2 24:3 29:4 33:2 34:3 41:1 112:3 253:0
0 1:6 2:6 4:12 5:7 6:4 9:6 10:10 11:6 23:2 24:2 28:2 253:0
0 4:5 5:4 9:3 10:3 11:3 12:2 13:1 15:1 20:1 22:1 23:2 24:2 28:1 41:1 253:0
0 1:14 2:13 3:2 4:7 5:1 6:5 7:2 9:2 10:8 15:2 16:1 20:2 23:1 24:1 25:1 28:1 62:2 66:1 92:4 93:1 94:2 95:1 96:1 253:0
0 1:7 2:5 3:2 4:2 5:3 6:1 7:2 8:1 9:6 11:6 29:1 36:1 42:2 43:1 44:2 102:1 253:0
0 1:12 2:12 9:8 11:7 29:8 62:2 92:4 93:1 253:0
0 1:9 2:9 3:6 4:3 5:2 6:3 7:8 8:3 9:3 10:1 17:2 18:1 19:2 25:1 29:1 36:2 37:2 66:1 94:2 95:1 96:1 136:1 153:1 253:0
0 1:6 2:4 4:6 5:2 6:2 9:3 10:4 11:3 12:4 13:1 42:4 43:2 44:4 102:2 253:0
0 1:1 3:2 4:3 7:4 8:2 10:2 37:1 62:2 107:2 110:2 139:2 140:1 253:0
0 1:12 2:12 4:4 5:2 6:2 9:6 10:2 11:6 23:1 24:2 29:4 62:2 92:4 93:1 253:0
0 1:6 2:6 4:5 5:1 6:2 7:4 8:1 9:1 10:3 15:4 16:2 20:7 26:4 27:2 37:2 55:1 66:1 94:2 95:1 96:1 253:0
0 1:8 2:9 3:3 4:9 5:6 6:4 7:2 8:1 9:6 10:6 11:6 12:3 13:1 23:1 24:1 28:1 253:0
0 1:8 2:7 3:6 4:10 5:4 6:3 7:8 8:4 9:3 10:7 11:1 15:4 16:1 20:7 25:3 26:2 27:1 33:2 34:1 36:2 37:2 66:2 253:0
0 1:6 2:6 4:10 5:8 6:4 9:7 10:7 11:5 15:1 20:2 23:3 24:3 28:3 253:0
0 1:16 2:14 3:4 4:6 5:1 6:8 7:6 8:3 9:3 10:2 15:1 20:1 22:1 23:2 24:2 25:2 28:1 29:4 37:1 66:4 253:0
0 1:11 2:9 3:8 4:9 5:5 6:5 7:6 8:3 9:6 10:6 11:3 15:2 16:1 20:3 25:1 29:2 58:2 59:1 60:1 61:2 62:1 63:2 64:2 65:1 253:0
0 1:4 2:3 3:2 4:1 5:1 6:2 7:2 8:1 9:1 23:1 24:1 28:1 88:1 114:1 253:0
0 4:3 10:2 15:2 20:2 22:2 23:2 24:2 253:0
0 1:9 2:8 4:7 6:3 10:5 14:4 15:10 16:3 20:11 42:2 43:1 44:2 55:1 102:1 253:0
0 1:8 2:7 3:2 4:10 5:1 6:8 7:2 9:4 10:7 11:1 14:1 15:2 16:1 20:1 23:1 28:2 29:2 35:1 58:1 59:1 60:1 61:2 62:1 63:2 64:2 65:1 66:1 92:2 94:2 95:1 96:1 103:1 253:0
0 4:2 5:2 9:3 11:3 27:2 76:2 253:0
0 1:17 2:19 3:6 4:5 5:3 6:1 7:4 8:2 9:1 10:5 14:8 15:6 16:3 20:1 25:1 33:2 34:1 253:0
0 1:14 2:12 3:4 4:6 6:8 7:6 8:2 10:1 14:7 15:8 16:3 18:1 19:2 20:2 21:2 25:4 26:2 27:1 94:2 95:1 103:1 136:2 253:0
0 1:6 2:6 4:9 5:2 6:2 9:2 10:7 11:1 14:4 15:3 16:1 23:1 24:1 28:1 253:0
0 1:6 2:4 4:13 5:4 6:2 9:3 10:16 11:3 15:3 16:1 20:6 22:1 23:1 24:1 42:4 43:2 44:4 102:2 253:0
0 1:6 2:6 4:9 5:8 6:2 9:8 10:5 11:7 15:3 16:1 20:3 22:2 23:4 24:3 28:3 35:1 253:0
0 1:9 2:10 3:3 7:2 8:1 14:2 15:1 26:2 27:1 67:2 68:1 253:0
0 1:12 2:12 4:7 5:1 6:8 9:3 10:5 11:3 14:2 15:4 16:2 20:4 90:1 91:1 253:0
0 1:12 2:12 4:7 5:3 6:4 9:3 10:3 11:3 14:2 15:2 16:1 20:1 23:1 24:2 253:0
0 1:12 2:12 4:10 5:5 6:10 9:5 10:6 11:4 12:2 13:1 14:2 15:3 16:1 20:1 22:1 23:2 24:3 29:2 34:2 41:1 111:2 113:1 253:0
0 4:1 5:1 9:2 11:1 15:1 20:1 22:1 23:1 24:1 253:0
0 1:12 2:12 4:4 5:1 6:4 9:7 10:1 11:4 23:1 24:1 26:2 27:1 28:1 29:8 33:2 34:2 38:1 39:1 40:1 58:1 59:1 60:1 61:2 62:1 63:2 64:2 65:1 107:1 112:1 253:0
0 1:10 2:9 3:6 4:7 5:2 6:5 7:10 8:4 9:4 10:5 11:3 25:3 29:1 33:2 34:4 36:1 37:3 66:2 94:2 95:1 112:3 113:3 253:0
0 1:6 2:6 4:5 5:3 9:2 10:2 11:1 12:1 13:1 14:4 15:5 16:2 20:4 253:0
0 1:12 2:12 4:8 5:3 6:4 9:4 10:7 11:6 15:3 16:1 20:5 22:1 23:1 24:1 253:0
0 1:1 3:2 4:6 5:3 6:1 7:4 8:2 9:6 10:4 11:1 15:4 16:2 20:3 22:1 23:2 24:2 25:1 28:1 29:1 32:1 35:1 36:1 37:1 38:1 39:2 40:1 66:2 253:0
0 4:1 15:3 20:1 27:3 46:1 47:1 48:1 49:2 50:1 51:2 52:2 53:1 76:3 82:2 104:3 151:1 253:0
0 1:6 2:6 4:7 9:1 10:5 12:3 13:1 15:2 16:1 20:2 22:1 23:1 24:1 26:2 27:1 29:2 33:2 34:1 58:1 59:1 60:1 61:2 62:1 63:2 64:2 65:1 107:2 253:0
0 1:12 2:12 4:7 5:4 6:4 9:2 10:5 11:1 14:2 15:2 20:2 253:0
0 4:2 5:1 9:5 10:1 11:6 15:2 16:1 20:2 22:1 23:1 28:1 32:1 253:0
0 1:7 2:6 3:1 4:2 6:2 7:2 8:1 9:2 17:1 18:1 19:2 21:1 25:1 29:2 36:1 58:1 59:1 60:1 61:2 62:1 63:2 64:2 65:1 92:2 136:1 153:1 253:0
0 4:4 5:1 9:1 10:3 15:2 16:1 20:1 22:1 23:2 24:3 253:0
0 4:26 10:37 12:5 13:2 15:5 16:1 20:8 22:2 23:4 24:6 253:0
0 1:8 2:9 4:2 6:2 12:2 13:1 14:4 15:4 16:2 17:3 18:1 19:2 20:1 22:1 23:1 24:1 253:0
0 1:6 2:6 4:6 6:4 10:4 15:2 16:1 20:3 22:1 23:1 24:1 253:0
0 1:14 2:12 3:4 4:2 6:6 7:4 8:2 9:2 11:1 14:2 15:2 16:1 29:2 33:4 34:2 36:2 62:2 63:1 64:2 93:1 107:1 210:2 211:1 212:1 253:0
0 1:12 2:12 4:4 5:3 6:4 9:2 10:2 11:1 26:2 27:1 253:0
0 1:12 2:12 4:5 5:3 6:4 9:6 10:2 11:4 14:2 15:2 16:1 20:1 23:3 24:2 28:3 29:2 38:1 39:1 40:1 62:2 72:1 93:1 100:1 107:2 109:1 253:0
0 1:7 2:8 3:3 4:7 5:6 6:1 7:2 9:5 10:6 11:4 23:1 24:1 25:1 28:1 94:2 95:1 253:0
0 4:8 5:2 9:5 10:6 11:4 12:1 13:1 15:6 16:2 20:9 22:1 23:2 24:1 28:2 32:1 35:1 39:1 40:1 41:1 72:1 73:1 74:1 253:0
0 1:12 2:12 3:4 4:7 5:3 6:8 7:4 8:2 9:4 11:3 15:3 16:1 20:3 22:1 23:1 24:1 25:2 29:2 34:3 37:1 66:2 112:3 113:3 253:0
0 1:12 2:12 4:7 5:3 6:4 9:3 10:4 11:3 15:2 16:1 20:3 26:2 27:1 253:0
0 1:6 2:6 4:1 6:2 59:1 60:1 61:2 62:1 63:2 64:2 65:1 92:2 253:0
0 1:6 2:6 4:21 5:3 6:4 9:2 10:34 11:1 14:4 15:6 16:2 20:8 253:0
0 4:23 10:35 12:5 13:2 15:2 20:5 23:2 24:4 27:1 34:1 76:1 112:3 253:0
0 4:22 10:34 12:5 13:2 15:2 20:5 23:2 24:3 34:3 62:2 93:1 107:1 109:1 112:5 180:1 253:0
0 1:6 2:6 4:16 10:15 12:4 13:2 14:2 15:6 16:2 20:8 22:1 23:1 24:1 34:2 112:4 113:1 253:0
0 4:5 5:6 9:6 10:3 11:4 12:3 13:1 23:2 24:1 28:3 35:1 63:2 65:1 74:1 84:2 86:4 97:2 137:1 172:1 253:0
0 1:12 2:12 4:7 5:5 9:7 10:6 11:6 23:1 24:1 28:1 29:4 62:4 63:2 64:4 65:1 92:6 93:2 253:0
0 1:9 2:8 4:5 5:2 6:4 9:3 10:1 11:3 12:2 13:1 15:1 17:2 18:1 19:2 20:1 21:2 22:1 23:2 24:2 26:2 27:1 28:1 62:2 93:1 98:1 99:1 100:1 101:1 106:1 107:1 253:0
0 1:3 2:2 4:7 5:6 6:1 9:6 10:3 11:4 12:3 13:1 15:4 16:1 17:2 18:1 19:2 20:2 21:1 22:2 23:4 24:3 28:3 32:1 40:1 41:1 62:2 72:2 73:1 74:1 75:1 93:1 100:1 107:2 253:0
0 4:9 5:2 9:4 10:12 11:2 23:3 24:2 28:4 35:1 253:0
0 1:6 2:6 4:8 5:6 6:2 9:6 10:7 11:4 14:2 15:2 16:1 23:1 24:1 26:2 27:1 28:1 29:2 253:0
0 1:15 2:14 4:4 5:3 6:5 9:4 10:1 11:2 14:2 15:2 16:1 17:2 18:1 19:2 20:1 21:1 23:2 24:1 28:3 35:1 62:2 92:4 93:1 253:0
0 1:6 2:6 4:10 5:4 6:2 9:4 10:10 11:6 15:3 16:1 20:4 22:1 23:1 24:1 253:0
0 1:10 2:9 3:2 4:9 5:2 6:2 7:6 8:2 9:4 10:8 11:3 14:1 15:2 16:1 20:2 25:4 26:2 27:1 29:2 37:2 66:2 94:2 95:1 103:1 253:0
0 1:10 2:9 3:2 4:5 5:5 6:6 7:2 8:1 9:6 10:2 11:6 29:1 36:1 253:0
0 1:12 2:12 4:7 5:7 6:4 9:8 10:1 11:7 14:4 15:5 16:2 20:3 23:1 24:1 28:1 29:2 253:0
0 1:4 2:3 3:4 4:9 6:1 7:5 8:2 9:1 10:9 15:6 16:2 20:11 22:1 23:1 24:1 25:1 29:1 36:1 37:1 90:1 91:1 94:3 95:1 253:0
0 1:17 2:19 3:6 4:4 5:1 6:4 7:4 8:2 9:1 10:1 15:1 20:1 22:1 23:1 24:1 25:2 33:2 34:1 66:2 253:0
0 4:9 5:1 9:1 10:7 15:2 16:1 20:2 22:1 23:2 24:3 253:0
0 1:6 2:6 4:8 5:1 6:2 9:3 10:10 11:3 14:2 15:4 16:1 20:5 253:0
0 1:4 2:3 3:2 4:10 5:5 6:2 7:2 8:1 9:7 10:9 11:6 12:2 13:1 15:2 20:1 22:1 23:2 24:3 29:2 33:2 34:1 36:2 40:1 41:1 72:2 73:1 74:1 75:1 253:0
0 1:10 2:9 3:2 4:6 5:3 6:6 7:2 8:1 9:3 10:4 11:3 23:1 24:1 28:1 33:6 34:3 253:0
0 1:10 2:9 3:2 4:14 6:10 7:2 8:1 10:10 12:2 13:1 15:5 16:1 20:6 22:1 23:1 24:1 25:2 33:2 34:1 253:0
0 4:10 5:2 9:2 10:9 11:1 12:5 13:2 23:1 24:1 28:1 41:1 74:1 97:2 253:0
0 1:8 2:5 3:9 4:4 5:2 7:12 8:5 9:3 10:2 11:1 14:1 15:2 16:1 20:2 25:2 29:2 33:2 34:1 36:2 37:3 66:2 94:2 95:1 103:1 253:0
0 1:6 2:6 4:7 5:2 6:2 9:5 10:5 11:4 12:3 13:1 15:2 16:1 20:1 23:2 24:1 28:3 32:1 35:1 41:1 253:0
0 1:12 2:12 4:4 5:1 6:4 9:2 10:2 11:1 14:2 15:2 16:1 20:2 34:3 112:3 113:3 253:0
0 4:11 5:6 7:4 8:1 9:3 10:15 11:1 15:2 20:2 22:2 23:3 24:3 28:1 37:2 62:2 93:1 94:2 95:1 107:2 110:2 253:0
0 1:17 2:20 4:4 5:5 9:6 10:1 11:6 14:4 15:5 16:2 20:3 29:2 253:0
0 1:13 2:14 3:3 4:6 5:6 6:6 7:4 8:2 9:6 10:2 11:4 23:1 24:1 26:2 27:1 28:1 29:1 34:3 36:1 37:1 112:3 113:3 253:0
0 1:6 2:6 4:14 5:3 6:4 9:7 10:16 11:6 12:6 13:2 14:2 15:4 20:5 23:3 24:5 28:1 29:2 54:2 253:0
0 1:6 2:6 3:4 4:4 5:3 7:4 8:2 9:3 11:3 14:2 15:4 16:2 20:3 37:1 62:2 93:1 107:1 110:2 253:0
0 1:9 2:10 3:3 4:6 5:5 7:2 8:1 9:5 10:3 11:4 26:2 27:1 29:2 253:0
0 1:12 2:12 4:5 5:4 6:2 7:4 8:1 9:5 10:2 11:4 14:2 15:2 16:1 20:1 23:2 24:2 25:4 28:2 29:2 37:2 94:2 95:1 253:0
0 1:12 2:12 4:7 5:2 6:4 9:2 10:4 11:1 15:2 16:1 20:2 22:1 23:3 24:3 28:1 62:2 93:1 107:2 109:1 253:0
0 4:11 5:3 9:2 10:18 11:1 253:0
0 1:14 2:13 3:2 4:11 5:4 6:8 7:4 8:2 9:5 10:6 11:4 12:2 13:1 14:2 15:2 16:1 20:1 23:1 24:1 25:2 28:1 37:1 40:1 72:2 88:1 89:1 90:1 91:1 114:2 253:0
0 1:1 3:2 4:2 5:1 6:1 7:4 8:2 9:1 10:1 25:1 37:1 253:0
0 1:6 2:6 4:15 6:4 10:22 14:4 15:4 16:1 20:2 253:0
0 1:6 2:6 4:11 5:4 6:4 9:6 10:8 11:6 12:2 13:1 15:2 20:3 22:1 23:2 24:3 29:4 33:2 34:1 41:1 253:0
0 1:12 2:12 4:5 5:7 6:2 9:9 10:1 11:7 14:2 15:2 16:1 20:1 23:2 24:1 26:2 27:1 28:3 29:2 33:2 34:1 35:1 253:0
0 4:16 10:20 15:8 16:3 20:12 55:3 226:2 227:1 253:0
0 4:20 10:29 12:3 13:1 15:1 20:2 23:1 24:2 253:0
0 1:6 2:6 4:10 5:4 6:2 9:3 10:10 11:3 15:6 16:2 20:11 22:1 23:1 24:1 253:0
0 1:10 2:9 3:2 4:3 5:2 6:2 7:6 8:2 9:6 10:1 11:4 14:4 15:4 16:2 23:1 24:1 25:2 28:1 29:2 34:2 36:2 37:2 55:1 66:1 94:2 95:1 96:1 111:4 113:1 253:0
0 1:12 2:12 4:7 5:1 6:8 9:3 10:5 11:3 15:2 16:1 20:4 33:2 34:1 90:1 91:1 253:0
0 1:12 2:12 4:4 5:2 6:4 9:4 10:2 11:2 12:2 13:1 23:2 24:4 29:4 41:2 62:2 63:4 64:4 65:2 84:2 85:2 86:4 92:4 253:0
0 1:4 2:3 3:2 4:1 6:1 7:2 8:1 9:1 25:1 40:1 66:2 72:1 73:1 74:1 253:0
0 1:12 2:12 4:8 5:4 6:4 9:3 10:4 11:3 14:6 15:8 16:4 20:2 22:1 23:1 24:1 253:0
0 1:12 2:12 4:3 6:4 10:2 12:2 13:1 14:6 15:4 16:1 23:1 24:2 54:1 253:0
0 1:12 2:12 4:5 6:6 10:5 23:2 24:4 33:2 34:1 253:0
0 1:6 2:6 4:10 5:7 6:2 9:8 10:5 11:7 14:2 15:6 16:3 20:8 22:1 23:1 28:1 32:1 33:2 34:1 90:1 91:1 253:0
0 1:11 2:9 3:9 4:5 5:3 6:5 7:8 8:2 9:4 10:1 11:3 15:2 16:1 20:2 25:3 29:1 36:1 66:1 94:4 95:2 96:1 253:0
0 1:6 2:6 4:16 6:4 10:16 12:6 13:2 14:6 15:6 16:1 20:2 23:3 24:6 54:2 253:0
0 1:9 2:8 4:4 5:1 6:4 7:4 8:1 9:2 10:1 25:4 26:2 27:1 29:1 30:1 31:1 37:2 38:1 40:1 42:2 43:1 44:2 66:2 72:2 94:2 95:1 142:1 228:1 253:0
0 1:8 2:7 3:2 4:11 5:2 6:4 7:4 8:2 9:4 10:11 11:3 14:1 15:3 16:1 20:2 22:1 23:2 24:2 28:1 29:3 36:1 37:1 103:1 253:0
0 1:6 2:6 4:12 5:3 6:4 9:3 10:16 11:3 14:4 15:4 16:1 20:5 23:1 24:2 253:0
0 1:6 2:6 4:3 5:2 6:2 9:2 10:2 11:1 14:4 15:4 16:2 23:1 24:2 55:1 253:0
0 1:12 2:12 4:4 6:4 9:3 10:4 12:2 13:1 14:6 15:6 16:3 29:4 30:2 31:1 32:1 41:1 54:1 90:1 91:1 253:0
0 4:8 5:2 9:2 10:10 11:1 23:2 24:3 28:1 253:0
0 1:12 2:10 3:3 4:7 5:2 6:9 7:3 8:1 9:3 10:1 11:3 12:3 13:1 14:2 15:2 16:1 17:1 19:1 21:1 23:1 24:1 25:2 28:1 29:2 69:1 70:1 71:1 253:0
0 4:8 5:5 9:5 10:7 11:4 12:4 13:2 23:1 24:1 28:1 41:1 253:0
0 1:9 2:8 3:2 4:7 5:3 6:5 7:2 8:1 9:4 10:2 11:2 15:4 16:2 20:5 23:2 24:2 25:1 28:2 29:2 59:1 60:1 61:2 62:1 63:2 64:2 65:1 92:2 122:2 253:0
0 1:1 3:2 4:3 5:2 6:1 7:4 8:2 9:1 10:2 15:1 20:1 22:1 23:1 24:1 25:1 37:1 253:0
0 1:6 2:6 4:5 5:3 6:2 9:8 10:7 11:7 14:2 15:2 16:1 22:1 23:1 28:1 29:2 32:1 35:1 253:0
0 4:5 5:2 9:5 10:3 11:3 12:1 13:1 15:5 16:1 20:8 23:1 28:2 32:1 35:1 38:1 39:1 40:1 41:1 72:1 253:0
0 1:2 3:2 4:10 5:3 6:2 7:4 8:2 9:3 10:8 11:1 23:2 24:2 25:3 28:2 42:2 43:2 44:4 45:2 74:1 97:1 102:3 253:0
0 1:6 2:6 4:11 5:6 6:4 9:8 10:8 11:6 23:1 24:1 28:1 29:2 34:3 38:1 39:1 40:1 62:2 74:1 92:2 93:1 97:1 100:1 112:3 113:3 115:1 116:1 117:1 149:1 253:0
0 1:6 2:3 3:6 4:8 5:4 7:6 8:3 9:6 10:10 11:3 15:2 16:1 20:3 26:2 27:1 29:3 36:3 62:2 92:3 93:1 110:1 253:0
0 1:6 2:6 4:7 5:2 6:4 9:3 10:5 11:3 12:2 13:1 15:1 20:1 22:1 23:2 24:3 29:2 33:2 34:1 41:1 253:0
0 4:10 5:4 7:6 8:3 9:4 10:7 11:2 12:3 13:1 15:1 20:2 25:2 34:9 36:4 37:3 112:11 113:7 179:1 253:0
0 1:6 2:6 4:3 5:2 6:2 9:1 10:2 14:4 15:3 20:1 22:1 23:1 24:1 33:2 34:1 253:0
0 1:11 2:14 4:6 5:2 6:2 9:2 10:10 11:1 253:0
0 1:6 2:6 4:5 5:5 9:7 10:1 11:5 14:4 15:6 16:2 20:5 23:1 28:2 35:1 253:0
0 1:2 2:1 3:5 4:4 5:1 7:8 8:4 9:2 10:4 14:1 15:3 20:2 36:2 37:3 66:2 103:1 253:0
0 4:21 10:32 12:3 13:1 15:1 20:2 23:2 24:4 253:0
0 1:6 2:6 4:10 6:4 10:11 15:1 20:1 22:1 23:2 24:3 253:0
0 1:12 2:12 4:4 5:4 6:4 9:3 10:1 11:1 14:2 15:2 16:1 20:1 23:1 24:1 28:1 33:2 34:1 253:0
0 1:12 2:12 4:5 5:3 6:4 9:4 10:3 11:2 14:4 15:4 16:1 20:2 23:1 28:1 29:2 253:0
0 1:10 2:9 3:2 4:6 5:3 6:5 7:2 8:1 9:5 10:2 11:4 12:3 13:1 15:2 20:2 23:2 24:2 25:1 28:2 29:2 33:2 34:1 54:1 253:0
0 1:12 2:12 4:3 5:1 6:4 9:3 10:1 11:3 15:2 16:1 20:3 30:2 31:1 253:0
0 1:6 2:6 4:1 5:1 9:3 11:3 14:2 15:1 23:1 24:1 27:2 28:1 29:2 76:2 104:1 253:0
0 1:6 2:4 3:4 4:9 5:6 6:7 7:4 8:1 9:6 10:6 11:2 23:1 24:1 25:1 28:1 29:1 33:2 34:1 36:1 66:1 94:2 95:1 96:1 253:0
0 1:9 2:8 3:2 4:6 5:2 6:3 7:6 8:1 9:7 10:5 11:3 14:2 15:2 16:1 23:2 24:2 25:3 28:2 29:5 36:1 37:2 66:1 94:4 95:2 96:1 253:0
0 1:6 2:6 3:4 4:8 5:3 6:2 7:4 8:2 9:2 10:10 23:1 24:1 25:2 28:1 37:1 253:0
0 1:10 2:9 3:2 4:6 5:4 6:2 7:2 8:1 9:7 10:4 11:6 12:2 13:1 15:1 20:1 22:1 23:2 24:3 29:4 33:6 34:3 36:2 41:1 253:0
0 1:12 2:12 4:7 5:6 6:2 9:7 10:6 11:6 14:4 15:3 16:1 20:1 22:1 23:1 24:1 29:2 38:1 39:1 40:1 72:1 253:0
0 1:12 2:12 4:3 5:2 6:4 9:7 10:1 11:6 15:2 16:1 20:1 22:1 23:2 24:1 26:2 27:1 28:2 29:2 32:2 38:1 40:1 72:2 253:0
0 1:8 2:6 3:4 4:3 6:6 7:4 8:2 25:2 253:0
0 1:12 2:12 4:5 5:6 6:2 9:9 10:1 11:9 29:4 34:3 62:2 92:4 93:1 112:3 113:3 253:0
0 1:12 2:12 4:5 5:7 9:9 10:1 11:9 15:1 20:1 26:2 27:1 29:4 62:2 92:4 93:1 253:0
0 1:12 2:12 4:4 5:6 6:2 9:11 11:10 23:1 28:2 29:6 34:3 35:1 112:3 113:3 253:0
0 1:6 2:6 4:10 5:1 6:2 9:1 10:10 14:2 15:3 16:1 20:3 253:0
0 1:6 2:6 4:3 5:2 6:2 9:2 10:2 11:1 15:1 20:2 253:0
0 1:12 2:14 3:2 4:5 5:2 6:5 7:4 8:2 9:3 10:4 11:1 15:1 20:3 23:1 24:1 25:1 28:1 37:1 66:2 253:0
0 1:6 2:6 4:4 5:3 6:2 9:1 10:3 38:1 40:1 62:2 63:4 64:4 65:2 72:1 73:1 74:1 84:2 85:2 86:4 92:4 97:1 253:0
0 1:4 2:3 3:2 4:6 5:5 6:2 7:2 8:1 9:8 10:2 11:7 12:2 13:1 15:1 20:1 22:1 23:2 24:3 29:2 33:2 34:1 36:2 41:1 253:0
0 1:6 2:6 4:1 6:2 7:6 8:3 9:2 25:2 26:4 27:2 36:4 37:3 253:0
0 1:8 2:7 3:2 4:11 5:1 6:12 7:2 9:1 10:5 14:2 15:2 20:1 22:1 23:1 24:1 25:2 66:1 94:2 95:1 96:1 253:0
0 1:12 2:12 4:6 5:4 6:8 9:3 10:3 11:3 14:8 15:8 16:4 253:0
0 1:14 2:15 3:3 4:9 5:2 6:5 7:2 8:1 9:1 10:5 12:2 13:1 15:3 20:5 22:1 23:1 24:1 25:1 33:2 34:1 66:2 253:0
0 1:6 2:6 4:8 5:5 6:2 9:6 10:6 11:4 15:1 20:2 23:2 24:3 26:2 27:1 28:1 29:2 30:2 31:1 38:1 39:1 40:1 253:0
0 1:6 2:6 4:4 5:1 6:2 9:3 10:3 11:1 15:1 20:3 23:1 24:1 28:1 29:4 34:3 74:1 97:1 112:3 113:3 115:1 116:1 117:1 253:0
0 4:1 5:1 9:4 11:3 15:1 20:1 35:1 39:2 40:1 50:1 51:3 52:3 53:3 82:1 253:0
0 4:9 5:2 9:6 10:6 11:4 12:1 13:1 15:6 16:2 20:8 22:1 23:2 28:3 32:2 34:1 35:1 38:1 39:1 40:1 41:1 72:1 112:1 179:1 253:0
0 1:9 2:8 4:5 5:7 6:3 9:11 11:10 23:2 24:2 28:2 29:6 42:2 43:1 44:2 102:1 253:0
0 1:6 2:6 9:3 11:1 26:2 27:1 29:2 35:1 58:1 59:2 60:2 61:4 62:2 63:4 64:4 65:2 92:4 253:0
0 1:9 2:8 4:5 5:2 6:4 9:3 10:2 11:1 23:1 28:2 33:2 34:1 35:1 42:2 43:1 44:2 74:1 97:2 102:2 118:2 119:1 253:0
0 1:10 2:9 3:2 4:2 5:2 6:4 7:2 8:1 9:3 11:1 23:1 24:1 28:1 66:2 253:0
0 1:6 2:6 4:9 5:4 6:2 9:3 10:9 11:3 15:4 16:2 20:4 22:2 23:2 24:2 253:0
0 1:16 2:18 3:6 4:8 5:3 6:6 7:4 8:2 9:3 10:8 11:1 23:2 24:2 28:2 66:2 253:0
0 1:6 2:6 4:2 5:1 6:2 9:1 14:2 15:2 16:1 20:1 23:1 24:1 28:1 253:0
0 4:23 10:35 12:3 13:1 15:1 20:2 23:1 24:2 253:0
0 4:6 5:7 9:7 10:4 11:4 15:1 20:1 23:2 24:1 28:3 35:1 63:2 65:1 74:2 75:1 84:2 86:4 97:3 137:1 172:1 253:0
0 4:1 15:2 16:1 20:1 27:1 34:5 76:1 111:2 112:3 113:4 229:1 253:0
0 4:22 10:32 12:3 13:1 15:1 20:3 40:1 72:2 73:1 74:1 118:1 119:1 253:0
0 1:6 2:6 4:9 5:2 6:2 9:2 10:9 11:1 14:4 15:4 16:2 20:2 23:1 24:1 28:1 253:0
0 1:6 2:6 4:3 5:2 6:2 9:1 10:2 15:1 20:1 22:1 23:1 24:1 253:0
0 1:6 2:6 4:10 5:8 6:2 9:9 10:7 11:7 12:2 13:1 15:1 20:1 22:1 23:2 24:3 29:6 33:4 34:2 41:1 253:0
0 1:6 2:6 4:2 5:1 6:2 9:1 10:1 14:2 15:1 253:0
0 1:12 2:10 3:3 4:4 6:6 7:7 8:2 9:1 10:1 15:2 16:1 17:1 19:1 20:2 21:1 25:3 26:2 27:1 37:2 66:2 69:1 70:1 71:1 94:2 95:1 103:2 253:0
0 1:6 2:6 4:4 5:3 6:2 9:2 10:4 11:1 253:0
0 1:10 2:9 3:2 4:4 5:2 6:4 7:2 8:1 9:5 10:1 11:4 12:3 13:1 14:5 15:4 16:2 23:2 24:1 28:3 34:2 35:1 41:1 103:1 111:2 113:1 253:0
0 1:12 2:12 4:2 5:2 9:6 10:1 11:6 26:2 27:1 29:4 62:2 92:4 93:1 253:0
0 1:2 2:1 3:5 4:1 5:1 7:8 8:4 9:2 15:2 16:1 20:1 29:1 36:1 37:3 47:1 48:1 49:2 50:1 51:2 52:2 53:1 66:2 151:1 253:0
0 1:6 2:6 4:3 6:2 9:2 10:3 15:4 16:2 20:2 22:2 23:2 28:2 32:2 253:0
0 4:17 5:3 9:3 10:19 11:3 15:2 16:1 20:2 22:1 23:1 24:1 253:0
0 1:6 2:6 4:3 5:4 6:2 9:5 11:4 29:2 62:1 63:2 64:2 65:1 84:1 85:1 86:2 92:2 253:0
0 1:1 3:1 4:7 5:6 6:1 7:2 8:1 9:6 10:3 11:4 12:4 13:2 15:1 20:1 22:1 23:3 24:3 25:1 28:2 36:1 40:1 41:1 42:1 43:1 44:2 45:1 62:2 72:2 73:1 74:1 93:1 100:1 107:2 142:1 253:0
0 1:6 2:6 4:6 5:5 6:2 9:8 10:2 11:5 12:2 13:1 15:1 20:1 23:2 24:2 28:2 33:2 34:1 35:1 38:1 39:2 40:1 41:1 54:1 58:2 59:1 60:1 61:2 62:1 63:2 64:2 65:1 107:1 253:0
0 4:24 10:35 12:5 13:2 15:4 16:1 20:7 22:1 23:3 24:5 253:0
0 1:6 2:6 4:5 5:2 6:2 9:3 10:1 11:3 12:5 13:2 15:1 20:1 22:1 23:2 24:2 28:1 62:2 93:1 98:1 99:1 100:1 101:1 106:1 107:1 253:0
0 1:1 3:1 4:6 5:1 6:1 7:2 8:1 9:1 10:4 15:5 16:1 20:9 23:1 24:1 25:2 28:1 42:1 43:1 44:2 45:1 102:1 253:0
0 1:12 2:12 4:3 5:2 9:6 10:3 11:6 14:2 15:2 16:1 29:4 62:2 92:4 93:1 253:0
0 1:12 2:12 4:8 6:10 10:4 14:4 15:4 16:1 20:2 22:1 23:1 24:1 253:0
0 1:9 2:4 3:13 4:3 5:2 6:5 7:13 8:6 9:2 10:1 25:1 37:3 66:2 94:4 95:3 96:2 144:1 253:0
0 4:21 10:30 12:4 13:1 15:9 16:4 20:19 22:1 23:1 24:1 253:0
0 1:16 2:15 3:2 4:6 5:2 6:8 7:2 8:1 9:2 10:3 11:1 14:2 15:2 16:1 20:2 33:2 34:1 253:0
0 1:13 2:10 3:5 4:4 5:1 6:6 7:5 8:2 9:3 10:1 11:3 23:2 24:3 25:1 28:1 29:2 37:1 42:2 43:1 44:2 94:3 95:1 102:1 253:0
0 1:12 2:12 4:10 5:5 6:4 9:3 10:8 11:3 15:2 16:1 20:4 253:0
0 1:6 2:6 4:13 10:13 12:4 13:3 14:2 15:6 16:2 20:6 22:1 23:2 24:3 178:1 253:0
0 1:14 2:15 3:3 4:6 5:6 6:6 7:2 8:1 9:6 10:1 11:6 23:1 24:1 28:1 33:2 34:1 90:1 91:1 253:0
0 1:6 2:6 4:7 5:5 6:4 9:5 10:4 11:2 15:1 20:1 29:4 74:1 97:1 115:1 116:1 117:1 253:0
0 4:23 5:5 9:3 10:30 11:1 15:4 16:1 20:8 23:1 24:1 28:1 55:2 226:2 227:1 253:0
0 1:6 2:6 4:2 5:1 6:2 9:2 10:1 11:1 14:4 15:3 20:2 253:0
0 1:12 2:12 4:3 6:4 9:1 10:2 14:4 15:2 23:1 24:2 29:2 74:1 97:1 115:1 116:1 117:1 253:0
0 4:12 5:2 9:5 10:11 11:3 12:1 13:1 15:6 16:3 20:9 22:2 23:3 24:2 27:1 28:2 32:1 34:1 35:1 38:1 39:1 40:1 41:1 72:1 76:1 112:2 253:0
0 1:12 2:12 4:8 5:2 6:4 9:3 10:10 11:3 23:1 24:2 253:0
0 1:6 2:6 4:11 5:9 9:10 10:13 11:9 15:2 16:1 22:1 23:3 24:2 28:3 29:2 32:1 74:1 97:1 253:0
0 1:16 2:15 3:2 4:5 5:5 7:2 8:1 9:10 10:3 11:9 12:1 13:1 14:4 15:2 16:1 23:2 24:1 28:3 29:7 35:1 36:1 253:0
0 1:6 2:6 4:14 5:6 6:2 9:7 10:11 11:5 12:2 13:1 14:4 15:4 16:2 22:1 23:2 24:1 28:2 32:1 253:0
0 1:6 2:6 4:6 5:3 6:2 9:2 10:3 11:1 12:1 13:1 14:2 15:3 16:1 20:3 253:0
0 1:15 2:16 3:3 4:2 6:5 7:2 8:1 15:1 20:1 22:1 23:1 24:1 25:1 253:0
0 4:5 10:4 15:7 16:1 20:11 55:1 253:0
0 4:4 5:2 9:4 11:2 15:2 20:2 23:1 27:1 28:2 35:1 46:1 47:1 48:1 49:2 50:1 51:2 52:2 53:1 76:1 82:2 88:1 114:2 116:1 123:1 188:1 253:0
0 1:12 2:12 4:3 5:3 6:4 9:5 11:4 23:1 24:1 26:2 27:1 28:1 29:4 35:1 59:1 60:1 61:2 62:1 63:2 64:2 65:1 92:2 253:0
0 1:6 2:6 4:10 5:3 6:4 9:3 10:7 11:3 15:2 16:1 20:2 22:1 23:1 24:1 253:0
0 1:17 2:20 4:8 6:6 10:6 14:2 15:7 16:1 20:11 253:0
0 1:10 2:9 3:2 4:8 5:5 6:5 7:2 8:1 9:5 10:5 11:4 23:1 24:1 25:1 26:2 27:1 28:1 33:2 34:2 112:3 253:0
0 1:18 2:18 4:3 6:6 7:4 8:1 9:1 14:4 15:3 20:1 22:1 23:1 24:1 25:4 29:2 37:2 66:1 94:2 95:1 96:1 253:0
0 1:10 2:8 3:4 4:5 5:4 6:3 7:6 8:2 9:8 11:7 12:2 13:1 25:3 29:3 36:3 37:1 94:2 95:1 253:0
0 4:26 10:41 15:3 20:5 22:1 23:1 24:1 253:0
0 1:9 2:8 4:9 5:2 6:7 9:2 10:6 11:1 12:4 13:1 23:1 24:2 42:2 43:1 44:2 102:1 253:0
0 1:11 2:11 3:4 4:3 6:6 7:6 8:3 9:2 10:1 14:4 15:4 16:2 29:1 36:3 37:2 253:0
0 1:6 2:6 4:10 5:2 6:2 9:3 10:8 11:1 12:6 13:2 15:4 16:2 20:3 22:2 23:2 24:2 29:2 41:2 74:1 97:1 115:1 116:1 117:1 253:0
0 1:10 2:9 3:2 4:4 6:6 7:2 8:1 9:1 25:2 29:2 33:2 34:1 118:2 119:1 253:0
0 4:7 5:9 9:9 10:2 11:9 12:4 13:2 23:2 24:4 41:3 253:0
0 1:14 2:15 3:3 4:8 5:5 6:9 7:2 8:1 9:3 10:5 11:1 15:1 20:1 23:1 24:1 25:1 28:1 33:2 34:1 74:1 75:1 97:1 253:0
0 1:9 2:10 3:3 4:11 5:3 6:5 7:2 8:1 9:3 10:7 11:3 12:6 13:2 14:2 15:4 16:1 20:5 22:1 23:2 24:2 25:1 28:1 41:1 253:0
0 1:13 2:12 3:6 7:4 8:2 9:2 26:2 27:1 29:3 36:1 58:1 59:1 60:1 61:2 62:1 63:2 64:2 65:1 92:2 253:0
0 4:6 5:2 9:5 10:4 11:3 12:5 13:2 15:1 20:2 23:2 24:2 28:2 35:1 40:1 41:1 72:2 88:1 89:1 114:1 253:0
0 1:12 2:12 4:8 5:5 6:4 9:8 10:6 11:7 23:3 24:3 28:3 29:2 33:2 34:1 35:1 253:0
0 1:14 2:12 3:4 4:8 5:3 6:7 7:4 8:2 9:3 10:6 11:3 15:1 20:3 23:1 24:1 25:1 28:1 253:0
0 1:12 2:12 4:7 5:2 6:4 9:4 10:2 11:3 12:2 13:1 14:2 15:4 16:1 20:4 23:1 24:1 26:2 27:1 28:1 29:2 38:1 39:1 40:1 62:2 93:1 100:1 106:1 107:1 149:1 253:0
0 1:18 2:18 3:2 4:1 5:1 6:2 7:2 8:1 9:3 11:1 14:4 15:3 16:1 29:2 36:1 42:2 43:1 44:2 45:1 58:1 59:1 60:1 61:2 62:1 63:2 64:2 65:1 92:2 142:1 253:0
0 1:4 2:2 3:4 4:9 5:5 6:1 7:8 8:4 9:6 10:7 11:6 14:1 15:1 25:3 29:1 34:3 36:1 37:2 62:2 93:1 103:1 107:1 110:2 112:3 113:3 253:0
0 1:12 2:12 3:2 4:7 5:4 6:2 7:2 8:1 9:5 10:6 11:4 15:1 17:2 18:1 19:2 23:2 24:2 28:2 29:2 33:2 34:1 103:1 136:1 230:1 253:0
0 1:6 2:6 4:2 6:2 9:3 10:1 11:3 12:1 13:1 23:1 24:2 29:2 33:2 34:1 41:1 62:2 63:1 64:2 93:1 106:1 107:1 253:0
0 1:6 2:6 4:11 5:8 6:2 9:5 10:7 11:4 15:3 16:1 20:3 22:2 23:3 24:3 28:1 253:0
0 1:14 2:13 3:2 4:7 5:6 6:3 7:4 8:2 9:9 10:3 11:6 15:2 16:1 20:2 23:1 24:1 25:1 28:1 29:6 36:2 37:1 253:0
0 4:11 10:7 15:6 16:3 20:7 22:3 23:3 24:3 253:0
0 4:17 5:8 9:5 10:21 11:4 15:1 20:3 23:1 24:1 28:1 90:1 91:1 253:0
0 1:6 2:6 4:12 6:4 10:9 12:2 13:1 14:4 15:8 16:4 20:10 22:3 23:3 24:3 253:0
0 1:12 2:12 4:3 5:5 6:2 9:6 11:4 14:4 15:2 16:1 26:2 27:1 29:2 38:1 39:1 40:1 72:1 253:0
0 4:23 10:32 12:3 13:1 15:2 16:1 20:4 22:1 23:1 24:1 40:1 72:2 73:1 74:1 118:1 119:1 253:0
0 4:5 5:2 9:5 10:3 11:3 12:1 13:1 15:4 16:1 20:6 23:1 28:2 32:1 35:1 38:1 39:1 40:1 41:1 72:1 253:0
0 1:2 2:1 3:2 4:1 6:2 7:2 94:2 95:1 253:0
0 1:6 2:6 4:6 5:1 6:2 9:3 10:7 11:3 15:1 20:3 26:2 27:1 253:0
0 1:6 2:6 4:9 5:1 6:6 7:4 8:1 9:1 10:12 37:2 66:1 90:2 91:2 94:2 95:1 96:1 253:0
0 1:6 2:6 4:3 5:4 6:2 9:5 10:1 11:4 23:2 24:1 28:3 35:1 253:0
0 1:14 2:12 3:4 4:6 5:3 6:6 7:4 8:2 9:6 10:6 11:3 23:1 24:1 28:1 29:5 36:1 253:0
0 4:13 10:14 15:1 20:2 63:2 65:1 83:1 84:2 86:4 137:1 253:0
0 1:9 2:8 3:2 4:11 5:8 6:5 7:2 9:8 10:6 11:7 12:2 13:1 14:3 15:4 16:2 20:2 23:1 24:1 25:1 28:1 29:2 33:2 34:1 94:2 95:1 103:1 253:0
0 1:6 2:6 4:13 5:5 6:4 9:5 10:13 11:4 23:1 24:1 28:1 33:2 34:2 112:3 253:0
0 4:23 10:35 12:5 13:2 15:2 20:3 23:2 24:4 34:1 112:2 253:0
0 1:12 2:12 4:4 5:3 6:4 9:4 10:1 11:3 23:1 24:1 26:2 27:1 28:1 29:2 34:3 38:1 40:1 72:2 112:3 113:3 253:0
0 4:5 5:2 9:1 10:5 15:1 20:1 22:1 23:1 24:1 253:0
0 1:2 2:1 3:5 4:4 5:1 7:8 8:4 9:2 10:3 14:1 15:5 16:1 20:6 32:1 34:1 36:2 37:3 66:2 103:1 112:2 253:0
0 1:6 2:6 4:12 5:7 6:2 9:8 10:11 11:7 12:2 13:1 14:2 15:3 16:1 20:1 22:1 23:2 24:3 29:4 33:2 34:1 41:1 253:0
0 4:5 5:3 9:3 10:1 11:1 15:1 20:1 27:2 50:1 51:1 52:1 62:3 63:2 64:2 65:1 76:2 77:3 78:2 79:1 80:2 81:2 82:1 84:1 85:1 86:2 93:1 100:1 107:3 253:0
0 1:6 2:4 3:4 4:9 5:1 6:3 7:8 8:3 9:2 10:7 11:1 14:1 15:2 16:1 20:1 25:5 29:1 36:1 37:1 43:1 44:2 45:2 94:2 95:1 102:2 103:1 253:0
0 1:4 2:3 3:2 4:5 6:2 7:2 8:1 10:2 15:4 16:2 20:4 22:1 23:1 24:1 253:0
0 1:11 2:11 3:4 4:8 5:7 6:5 7:6 8:3 9:8 10:2 11:7 15:4 16:2 20:4 23:1 24:1 25:1 28:1 29:1 36:3 37:2 253:0
0 1:12 2:12 4:10 5:5 6:8 9:6 10:7 11:6 14:8 15:8 16:4 23:1 24:1 28:1 253:0
0 4:23 10:32 12:6 13:2 15:3 16:1 20:5 22:1 23:3 24:5 253:0
0 1:6 2:6 4:9 5:2 6:2 9:2 10:7 11:1 12:2 13:1 14:4 15:3 16:1 23:1 24:1 28:1 253:0
0 1:13 2:12 3:2 4:6 5:5 6:7 7:2 9:7 10:1 11:5 15:2 16:1 20:2 22:1 23:2 24:1 25:1 28:2 29:2 32:1 33:2 34:1 94:2 95:2 144:1 253:0
0 1:16 2:15 3:2 4:7 5:5 6:7 7:2 8:1 9:5 10:1 11:4 14:2 15:4 16:2 20:3 23:1 24:1 25:1 28:1 253:0
0 1:13 2:14 3:1 4:6 5:6 6:4 7:1 9:8 10:2 11:7 23:1 24:1 26:2 27:1 28:1 29:3 36:1 42:2 44:1 174:1 175:1 176:1 253:0
0 1:6 2:6 4:2 5:1 6:2 9:4 11:1 23:1 24:1 28:1 29:2 35:1 40:1 72:1 88:1 89:1 98:1 99:2 114:1 253:0
0 1:8 2:7 3:2 4:12 5:4 6:6 7:2 9:7 10:11 11:1 12:2 13:1 23:2 24:2 28:2 29:4 38:1 40:1 41:1 66:1 72:2 88:1 94:2 95:1 96:1 114:2 253:0
0 1:12 2:12 4:3 5:2 6:2 9:5 10:1 11:3 14:2 15:2 16:1 20:1 29:4 58:2 59:2 60:2 61:4 62:2 63:4 64:4 65:2 253:0
0 1:12 2:12 4:11 5:9 6:4 9:8 10:4 11:7 14:2 15:2 16:1 20:1 23:2 24:2 28:2 253:0
0 1:6 2:6 4:8 5:3 6:4 9:7 10:4 11:4 15:4 20:7 23:2 24:1 28:3 29:4 35:1 38:2 39:1 40:2 72:3 253:0
0 4:1 5:1 9:4 11:1 12:1 13:1 23:1 28:2 35:1 38:1 39:1 40:1 41:1 72:1 253:0
0 1:12 2:12 4:4 5:2 6:4 9:3 10:1 11:3 12:3 13:1 14:4 15:2 16:1 118:1 119:1 253:0
0 4:5 10:4 15:6 16:2 20:10 253:0
0 1:14 2:13 3:2 4:5 5:4 6:5 7:4 8:2 9:7 11:5 15:2 16:1 20:2 23:1 24:1 25:1 28:1 29:4 36:2 37:1 90:1 91:1 253:0
0 1:6 2:6 4:5 5:1 6:2 9:5 10:2 11:3 12:4 13:2 29:4 38:1 40:1 41:1 62:1 72:2 92:2 98:1 152:2 231:1 253:0
0 4:3 10:3 15:1 20:3 27:3 76:3 104:3 253:0
0 4:8 5:8 9:8 10:2 11:4 12:2 13:1 253:0
0 1:6 2:6 4:1 6:2 253:0
0 4:4 5:3 9:2 10:3 15:1 20:1 22:1 23:1 24:1 253:0
0 1:6 2:6 4:1 5:1 9:2 26:2 27:1 29:2 38:1 39:1 40:1 58:1 59:1 60:1 61:2 62:1 63:2 64:2 65:1 72:1 92:2 253:0
0 1:9 2:11 3:2 4:4 5:5 7:2 8:1 9:4 10:2 11:2 33:2 34:1 58:2 59:1 60:1 61:2 62:1 63:2 64:2 65:1 92:2 253:0
0 1:6 2:6 4:13 5:3 6:2 7:2 9:3 10:11 11:1 14:2 15:2 16:1 20:1 23:1 24:1 25:2 28:1 29:2 37:1 66:1 94:2 95:3 96:1 144:2 253:0
0 4:2 10:1 15:3 20:4 253:0
0 4:16 5:11 9:9 10:18 11:6 15:2 16:1 22:1 23:4 24:3 28:4 32:1 34:3 90:1 91:1 112:3 113:3 253:0
0 1:18 2:18 4:7 6:6 10:5 14:14 15:13 16:4 20:9 23:1 24:2 253:0
0 1:2 2:1 3:2 4:11 5:5 6:1 7:4 8:2 9:6 10:12 11:6 15:1 20:1 22:1 23:1 24:1 25:1 29:1 34:3 36:3 37:1 112:3 113:3 253:0
0 1:12 2:12 4:4 5:1 6:4 9:2 10:2 11:1 14:2 15:2 16:1 20:2 253:0
0 1:18 2:18 3:4 4:4 5:3 6:8 7:4 8:2 9:5 10:1 11:4 15:3 16:1 20:2 22:1 23:2 24:1 26:2 27:1 28:2 29:2 32:2 36:2 37:1 253:0
0 4:4 5:3 9:3 10:1 11:1 15:1 20:1 27:2 50:1 51:1 52:1 76:2 77:3 78:2 79:1 80:2 81:2 82:1 253:0
0 1:6 2:6 4:6 5:6 6:4 9:6 10:3 11:4 23:4 24:4 28:4 29:2 253:0
0 1:12 2:10 3:4 4:7 5:4 6:4 7:6 8:3 9:8 10:6 11:4 23:1 24:1 26:2 27:1 28:1 29:6 33:2 34:1 36:4 37:1 38:1 39:1 40:1 72:1 90:1 91:1 253:0
0 4:5 5:4 9:6 10:3 11:3 12:1 13:1 15:4 16:1 20:6 23:1 28:2 32:2 34:1 35:1 38:1 39:1 40:1 41:1 72:1 112:2 127:1 128:2 216:1 253:0
0 1:12 2:12 4:6 5:3 6:6 9:3 10:3 11:1 14:4 15:4 16:2 23:1 24:1 28:1 29:2 40:1 55:1 72:2 88:1 89:1 114:2 253:0
0 1:5 2:2 3:9 4:5 5:1 7:8 8:2 9:3 10:5 11:1 14:1 15:4 16:2 20:2 29:2 34:2 36:2 37:1 66:1 94:4 95:2 96:1 103:1 111:2 113:1 253:0
0 1:7 2:6 3:2 4:8 5:4 6:4 7:4 8:2 9:4 10:6 11:2 12:4 13:2 23:2 24:2 25:2 28:2 37:1 41:2 253:0
0 1:8 2:6 3:8 4:6 5:3 6:3 7:8 8:4 9:4 10:4 11:3 15:1 20:1 22:1 23:1 24:1 25:1 26:2 27:1 33:1 34:1 36:2 37:1 66:2 200:1 253:0
0 1:12 2:12 4:8 5:3 6:8 9:3 10:7 11:3 14:2 15:1 26:2 27:1 253:0
0 4:3 5:1 9:1 10:2 38:1 40:1 62:2 63:1 64:2 93:1 98:1 107:1 163:1 253:0
0 4:1 5:1 9:4 11:1 23:1 27:1 28:2 35:1 58:2 59:2 60:2 61:4 62:2 63:4 64:4 65:2 76:1 88:1 114:2 182:2 253:0
0 4:6 5:2 9:5 10:4 11:4 12:2 13:1 15:4 16:1 20:6 23:2 24:1 28:3 32:1 35:1 41:1 253:0
0 4:21 5:1 9:1 10:33 12:2 13:1 15:2 20:3 253:0
0 7:6 8:3 9:9 11:9 36:6 37:3 253:0
0 1:7 2:6 3:1 4:4 5:1 6:4 7:2 8:1 9:1 10:1 23:1 24:2 25:1 42:1 43:1 44:2 45:1 66:2 102:1 253:0
0 1:9 2:9 3:5 4:5 5:3 6:5 7:6 8:3 9:4 10:1 11:3 23:1 24:1 25:3 28:1 37:1 66:2 253:0
0 1:14 2:13 3:2 4:9 5:4 6:10 7:2 9:4 10:4 11:3 15:3 16:1 20:4 23:1 24:1 28:1 29:2 33:2 34:1 66:1 94:2 95:1 96:1 253:0
0 4:3 10:2 253:0
0 1:6 2:6 4:5 5:5 6:2 9:4 10:3 11:2 23:2 24:2 28:2 29:2 253:0
0 1:6 2:6 4:4 6:4 10:2 59:1 60:1 61:2 62:3 63:4 64:6 65:2 92:4 93:1 107:1 253:0
0 1:12 2:12 4:6 5:2 6:2 9:2 10:7 11:1 14:6 15:6 16:3 20:1 33:2 34:1 55:1 253:0
0 1:13 2:10 3:6 4:8 5:1 6:11 7:8 8:3 9:2 10:3 15:1 20:3 25:5 36:2 37:1 66:1 90:1 91:1 94:2 95:2 96:1 144:1 253:0
0 1:14 2:12 3:4 4:4 5:4 6:8 7:4 8:2 9:4 11:2 14:2 15:2 16:1 23:2 24:2 28:2 253:0
0 1:16 2:13 3:5 4:6 5:1 6:10 7:5 8:2 9:3 10:1 11:1 17:1 19:1 21:1 25:3 29:1 36:1 62:2 63:2 64:4 65:1 69:1 70:1 71:1 92:2 93:1 107:2 253:0
0 1:12 2:12 4:3 5:2 6:4 9:4 10:1 11:1 23:1 24:1 28:1 29:4 38:1 40:1 72:2 74:1 97:1 115:1 116:1 117:1 253:0
0 4:1 15:2 20:2 22:1 23:1 24:1 253:0
0 1:11 2:11 3:4 4:8 5:6 6:5 7:6 8:3 9:6 10:2 11:6 14:2 15:7 16:3 20:5 25:1 29:1 36:3 37:2 253:0
0 4:2 12:2 13:1 15:3 16:1 20:2 22:2 23:2 24:2 253:0
0 1:6 2:6 4:4 5:2 6:2 9:2 10:4 11:1 15:2 16:1 20:3 33:4 34:2 253:0
0 1:8 2:9 3:3 4:5 5:3 6:4 7:2 8:1 9:5 10:3 11:4 15:2 16:1 20:1 22:1 23:1 28:1 32:1 253:0
0 4:2 5:1 9:1 10:1 62:1 63:2 64:2 65:1 84:1 85:1 86:2 107:1 253:0
0 4:15 10:20 15:6 16:2 20:10 22:1 23:1 24:1 55:2 226:2 227:1 253:0
0 1:2 2:1 3:5 4:9 5:4 7:8 8:4 9:4 10:8 11:1 12:2 13:1 15:3 16:1 20:3 22:1 23:1 24:1 29:1 36:3 37:3 66:2 253:0
0 1:12 2:12 4:4 5:4 6:2 9:6 10:4 11:3 14:2 15:2 16:1 23:2 24:1 28:3 29:2 33:4 34:2 35:1 253:0
0 1:6 2:6 4:5 5:5 9:8 10:1 11:7 15:2 16:1 20:2 22:1 23:2 24:1 28:2 29:4 32:1 33:2 34:1 62:2 93:1 107:2 253:0
0 1:12 2:12 4:4 5:2 6:4 7:4 8:1 9:5 10:1 11:3 25:4 26:2 27:1 29:2 37:2 38:1 40:1 66:2 72:2 94:2 95:1 253:0
0 1:6 2:6 4:10 5:5 6:4 9:7 10:7 11:5 12:2 13:1 15:2 16:1 20:2 23:2 24:1 28:3 33:2 34:2 35:2 41:2 112:2 253:0
0 1:6 2:6 4:3 5:2 6:2 9:1 10:2 14:4 15:3 20:1 22:1 23:1 24:1 253:0
0 1:4 2:3 3:2 4:10 6:6 7:2 8:1 9:1 10:8 25:2 29:2 253:0
0 1:10 2:9 3:4 4:7 5:3 6:1 7:4 8:2 9:4 10:6 11:2 14:4 15:3 16:1 20:2 23:1 24:1 25:1 28:1 36:1 42:2 43:1 44:2 45:1 142:1 253:0
0 4:1 5:4 9:12 11:12 23:2 28:4 35:4 253:0
0 4:2 10:1 15:1 20:2 253:0
0 1:20 2:22 3:6 4:4 5:3 6:2 7:6 8:2 9:4 10:1 11:2 14:2 15:2 16:1 20:1 23:1 24:1 25:2 28:1 29:3 36:1 37:1 94:2 95:1 253:0
0 1:10 2:9 3:2 4:11 5:4 6:10 7:2 8:1 9:5 10:7 11:4 23:2 24:2 28:2 29:2 253:0
0 1:6 2:6 4:3 5:1 9:4 10:2 11:1 23:1 28:2 29:2 35:1 58:1 59:1 60:1 61:2 62:1 63:2 64:2 65:1 92:2 253:0
0 1:6 2:6 4:10 5:2 6:2 9:3 10:14 11:3 26:2 27:1 253:0
0 1:6 2:6 4:1 6:2 9:1 14:2 15:2 20:1 22:1 23:1 24:1 29:2 253:0
0 1:9 2:6 3:7 4:4 6:2 7:7 8:5 10:2 25:2 33:2 34:1 37:1 118:2 119:1 253:0
0 1:12 2:12 4:5 5:6 6:4 9:5 10:2 11:4 15:2 16:1 20:3 23:1 24:1 26:4 27:2 28:1 29:2 32:1 253:0
0 1:6 2:6 4:5 5:3 6:4 9:3 10:2 11:1 14:2 15:4 16:2 20:3 38:1 39:1 40:1 72:1 253:0
0 1:9 2:8 4:5 5:4 6:5 9:3 10:2 11:3 15:2 16:1 20:1 22:1 23:1 24:1 26:2 27:1 42:2 43:1 44:2 102:1 253:0
0 1:12 2:12 4:4 5:1 6:6 9:3 10:1 11:3 15:2 16:1 20:3 253:0
0 1:3 2:2 4:3 5:2 6:1 9:5 11:2 12:2 13:1 17:2 18:1 19:2 21:1 23:2 24:1 28:3 29:1 35:1 40:1 72:1 74:1 88:1 89:1 97:1 114:2 115:1 116:1 117:1 153:1 253:0
0 1:8 2:9 3:3 4:3 5:1 6:4 7:2 8:1 9:4 10:1 11:3 58:1 59:1 60:1 61:2 62:1 63:2 64:2 65:1 107:1 253:0
0 1:13 2:14 3:3 4:5 5:2 7:4 8:2 9:7 10:2 11:5 12:2 13:1 14:2 15:4 16:2 20:4 23:1 24:1 26:2 27:1 28:1 29:5 33:2 34:1 36:1 37:1 253:0
0 4:2 12:2 13:1 15:4 16:2 20:2 22:2 23:2 24:2 253:0
0 1:9 2:7 3:4 4:6 5:4 6:6 7:6 8:2 9:4 10:2 11:3 23:1 24:1 25:2 26:2 27:1 28:1 33:2 34:4 36:2 37:1 66:1 94:2 95:2 96:1 112:3 113:3 144:1 253:0
0 4:2 7:4 8:1 15:1 20:1 22:1 23:1 24:1 25:2 37:2 62:2 93:1 94:2 95:1 107:1 110:2 253:0
0 4:19 10:27 12:5 13:2 15:4 16:1 20:5 22:1 23:1 24:1 253:0
0 1:12 2:12 4:1 14:6 15:4 16:2 20:1 33:2 34:4 62:2 63:2 64:4 65:1 92:4 93:1 112:3 113:3 253:0
0 1:18 2:18 4:11 5:4 6:8 9:4 10:12 11:3 14:2 15:2 16:1 20:1 23:1 24:1 28:1 253:0
0 1:10 2:8 3:2 4:10 5:1 6:6 7:4 8:2 9:1 10:5 12:3 13:1 15:2 20:2 22:2 23:2 24:2 25:3 37:1 42:2 43:1 44:2 66:2 102:1 253:0
0 4:10 5:6 9:3 10:12 11:1 15:2 20:2 22:2 23:3 24:3 28:1 62:4 63:2 64:4 65:1 93:2 107:4 253:0
0 1:6 2:6 4:6 5:6 6:2 9:5 10:3 11:4 12:1 13:1 14:4 15:4 16:2 23:1 24:1 28:1 59:1 60:1 61:2 62:1 63:2 64:2 65:1 92:2 253:0
0 1:12 2:12 4:3 6:6 10:1 15:1 20:1 22:1 23:1 24:1 253:0
0 1:6 2:6 3:4 4:6 5:6 6:2 7:2 9:5 10:3 11:4 12:1 13:1 14:2 15:2 16:1 23:1 24:1 28:1 94:2 95:2 144:1 253:0
0 1:14 2:15 3:3 4:4 5:1 6:5 7:2 8:1 9:1 10:1 14:2 15:3 16:1 20:1 22:1 23:2 24:2 25:1 26:2 27:1 28:1 66:2 253:0
0 1:7 2:6 3:2 4:4 5:4 6:3 7:4 8:2 9:9 10:1 11:7 14:4 15:3 20:2 23:2 24:1 25:1 28:3 29:1 35:1 36:1 37:1 66:2 253:0
0 4:22 10:34 12:3 13:1 15:1 20:3 23:1 24:2 118:1 119:1 253:0
0 1:9 2:10 3:3 7:2 8:1 14:2 15:1 253:0
0 232:1 253:0
0 4:8 5:2 9:4 10:11 11:2 12:1 13:1 23:3 24:2 28:4 35:1 253:0
0 1:10 2:9 3:2 4:4 5:5 6:3 7:2 8:1 9:10 11:8 15:2 16:1 22:1 23:2 25:1 28:3 29:4 32:1 33:2 34:1 35:1 253:0
0 1:12 2:12 4:8 5:6 6:2 9:8 10:4 11:7 14:2 15:2 16:1 20:1 23:1 24:1 26:4 27:2 28:1 29:4 253:0
0 1:9 2:8 3:2 4:2 6:1 7:2 8:1 9:4 12:2 13:1 25:1 29:4 35:1 39:2 40:2 66:2 72:1 74:1 88:1 89:1 97:1 114:1 115:1 116:1 117:1 253:0
0 1:8 2:5 3:8 4:6 5:2 6:7 7:11 8:4 9:4 10:1 11:3 25:5 29:1 34:3 36:1 37:2 66:1 94:5 95:2 96:1 112:3 113:3 253:0
0 1:9 2:8 4:4 5:5 6:3 9:9 11:7 29:5 38:1 39:1 40:1 42:2 43:1 44:2 72:1 102:1 142:1 253:0
0 1:10 2:9 3:2 4:5 5:3 6:6 7:2 8:1 9:2 10:2 11:1 15:1 20:2 23:1 24:1 28:1 34:3 62:2 63:1 64:2 92:1 93:1 110:1 112:3 113:1 210:2 211:1 212:1 253:0
0 1:9 2:9 3:5 4:7 5:1 6:3 7:6 8:3 9:2 10:6 23:1 24:2 25:3 37:1 66:4 253:0
0 1:12 2:12 4:5 5:3 6:4 9:3 10:1 11:3 14:2 15:2 16:1 20:1 253:0
0 1:9 2:11 3:2 4:11 5:3 6:1 7:2 8:1 9:2 10:11 11:1 15:4 16:1 20:8 22:1 23:2 24:2 25:1 28:1 34:1 40:1 55:1 72:2 73:1 74:1 75:1 112:1 253:0
0 1:12 2:12 4:7 6:4 10:8 14:8 15:8 16:4 253:0
0 1:9 2:8 3:2 4:10 5:7 6:8 7:2 8:1 9:8 10:2 11:7 12:3 13:1 23:2 24:2 25:2 28:2 29:2 33:2 34:1 253:0
0 1:12 2:12 4:12 5:9 6:4 9:8 10:9 11:5 12:1 13:1 15:1 20:2 23:2 24:2 28:2 29:2 38:1 39:1 40:1 41:1 72:1 253:0
0 1:16 2:15 3:2 4:3 5:1 6:6 7:2 8:1 9:2 10:1 11:1 23:1 24:1 28:1 29:1 36:1 253:0
0 4:5 5:1 9:1 10:4 15:1 20:1 22:1 23:1 24:1 253:0
0 1:6 2:6 4:7 5:3 6:2 9:3 10:5 11:3 14:6 15:6 16:3 23:1 24:2 253:0
0 1:12 2:12 4:4 5:2 6:4 9:6 10:1 11:6 12:3 13:1 14:2 15:3 16:1 20:1 23:2 24:2 28:2 29:4 34:3 54:1 112:3 113:3 253:0
0 4:15 5:9 9:6 10:11 11:3 12:2 13:1 15:3 16:1 20:5 22:1 23:4 24:4 28:3 62:2 107:2 139:2 140:1 253:0
0 1:10 2:9 3:2 4:8 5:2 6:8 7:2 8:1 9:3 10:4 11:1 12:3 13:1 14:3 15:4 16:2 20:1 23:1 24:1 28:1 29:2 41:1 90:1 91:1 103:1 253:0
0 4:4 10:4 15:2 20:4 22:1 23:1 24:1 253:0
0 1:11 2:9 3:4 4:10 5:6 6:7 7:4 9:2 10:9 11:1 14:3 15:3 16:1 20:2 25:1 94:4 95:2 103:1 253:0
0 1:6 2:6 4:4 5:1 6:2 9:1 10:4 15:1 20:1 22:1 23:1 24:1 26:2 27:1 253:0
0 1:18 2:18 4:7 5:3 6:10 9:2 10:2 11:1 14:4 15:7 16:3 20:3 22:1 23:2 24:2 28:1 33:4 34:2 253:0
0 1:6 2:6 4:4 5:3 6:2 9:1 10:4 14:2 15:2 20:1 22:1 23:1 24:1 253:0
0 4:12 10:7 12:4 13:2 15:4 16:1 20:7 22:1 23:1 24:1 118:3 119:2 253:0
0 1:6 2:6 4:13 5:3 6:2 9:3 10:14 11:3 15:1 20:3 253:0
0 1:12 2:12 4:8 5:6 6:4 9:6 10:5 11:6 23:1 28:2 35:1 62:3 93:3 107:4 253:0
0 1:12 2:12 4:7 6:6 10:6 14:8 15:8 16:4 40:2 72:4 88:1 89:2 253:0
0 1:6 2:6 4:9 5:6 6:2 9:5 10:5 11:4 15:1 20:1 22:1 23:3 24:3 28:2 253:0
0 1:11 2:9 3:2 4:5 5:4 6:6 7:2 9:4 10:2 11:1 23:1 24:1 25:1 26:3 27:2 28:1 33:2 34:1 42:2 43:1 44:2 66:1 94:2 95:1 96:1 102:1 183:1 253:0
0 1:6 2:6 4:10 5:5 6:4 9:5 10:6 11:4 23:1 24:1 28:1 29:2 253:0
0 4:2 10:1 62:2 63:2 64:4 65:1 90:1 91:1 93:1 107:1 253:0
0 1:17 2:19 3:6 4:8 5:3 6:1 7:4 8:2 9:3 10:9 11:3 14:8 15:7 16:3 20:3 25:1 33:2 34:1 253:0
0 1:12 2:12 4:9 5:4 6:6 9:5 10:5 11:1 12:2 13:1 14:2 15:2 16:1 20:1 23:2 24:3 28:1 29:4 33:6 34:3 54:1 253:0
0 4:1 15:1 20:1 22:1 23:1 24:1 46:1 47:1 48:1 49:2 50:1 51:2 52:2 53:1 253:0
0 4:25 10:36 12:5 13:2 15:3 16:1 20:6 22:1 23:3 24:5 27:1 34:2 76:1 112:5 253:0
0 1:6 2:6 4:6 5:4 6:2 9:4 10:3 11:3 12:3 13:1 23:1 24:1 28:1 39:1 40:2 72:3 88:2 89:2 114:1 253:0
0 4:22 10:33 12:5 13:2 15:4 20:8 23:2 24:4 34:1 112:3 253:0
0 1:13 2:11 3:4 4:7 5:2 6:6 7:4 8:2 9:4 10:2 11:2 14:4 15:8 16:4 20:6 23:1 24:1 25:2 26:2 27:1 28:1 29:4 253:0
0 1:10 2:9 3:2 4:5 5:2 6:6 7:2 8:1 9:5 10:1 11:4 12:3 13:1 14:3 15:2 16:1 23:2 24:1 28:3 34:3 35:1 41:1 103:1 112:3 113:3 253:0
0 1:12 2:12 4:7 5:4 6:2 9:6 10:6 11:6 15:2 16:1 20:2 22:1 23:1 28:1 29:2 32:1 33:8 34:4 253:0
0 4:3 5:1 9:4 10:2 11:6 15:2 20:3 22:1 23:1 24:1 253:0
0 1:14 2:13 3:2 4:8 5:7 6:5 7:2 9:7 10:4 11:5 14:4 15:4 16:2 23:1 24:1 25:1 28:1 29:3 36:1 94:2 95:1 253:0
0 1:10 2:9 3:2 4:5 5:2 6:2 7:2 8:1 9:7 10:3 11:6 12:2 13:1 15:2 20:3 22:1 23:2 24:3 26:2 27:1 29:6 33:6 34:3 36:2 41:1 253:0
0 4:6 5:2 9:4 10:4 11:2 15:7 16:2 20:10 23:1 27:1 28:2 35:1 55:1 76:1 88:1 114:2 116:1 188:1 253:0
0 1:20 2:22 3:2 4:5 5:2 6:9 7:2 9:4 10:3 11:3 25:1 29:1 36:1 94:2 95:1 253:0
0 1:14 2:13 3:2 4:7 5:3 6:2 7:4 8:2 9:6 10:5 11:4 23:2 24:2 26:2 27:1 28:2 29:4 36:2 37:1 74:1 97:1 253:0
0 1:12 2:12 4:7 6:4 10:5 14:2 15:4 16:2 20:6 22:1 23:2 24:3 26:2 27:1 253:0
0 1:12 2:12 4:9 5:2 6:4 9:2 10:7 11:1 15:4 16:2 20:7 22:1 23:1 24:1 253:0
0 1:18 2:18 4:7 5:3 6:12 7:4 8:1 9:2 10:3 11:1 25:2 33:4 34:2 37:2 94:2 95:1 253:0
0 1:12 2:12 4:3 6:6 7:3 8:1 15:1 19:1 20:1 21:1 22:1 23:1 24:1 25:3 33:2 34:1 37:1 69:1 70:1 71:1 136:1 253:0
0 1:6 2:6 4:7 5:3 6:2 9:2 10:7 11:1 15:2 16:1 20:1 22:1 23:1 24:1 253:0
0 4:25 10:34 12:5 13:2 15:7 16:3 20:13 22:1 23:3 24:5 34:2 55:1 112:5 253:0
0 4:6 5:3 9:3 10:2 11:3 12:2 13:1 15:4 16:2 20:3 22:2 23:4 24:4 28:2 253:0
0 1:9 2:8 4:1 5:1 6:2 9:1 23:1 24:1 26:4 27:2 28:1 30:1 31:1 42:2 43:1 44:2 58:1 59:1 60:1 61:2 62:1 63:2 64:2 65:1 92:1 121:1 228:1 253:0
0 1:12 2:10 3:4 4:8 5:3 6:13 7:4 8:1 9:3 10:2 11:1 14:1 15:4 16:2 20:2 23:1 24:1 25:1 28:1 29:2 66:1 94:2 95:1 96:1 103:1 253:0
0 1:6 2:6 4:5 5:2 6:2 9:4 10:7 11:2 23:3 24:2 28:4 35:1 253:0
0 1:10 2:9 3:2 4:9 5:2 6:7 7:2 8:1 9:2 10:6 11:1 12:4 13:1 25:1 26:2 27:1 253:0
0 1:14 2:13 3:5 4:4 5:4 6:2 7:8 8:4 9:6 10:2 11:4 23:1 24:1 28:1 29:5 33:2 34:1 36:1 37:3 38:1 39:1 40:1 72:1 253:0
0 1:12 2:12 4:3 5:1 6:4 9:2 10:1 11:1 12:2 13:1 14:4 15:3 16:1 23:1 24:2 29:2 33:2 34:1 41:1 50:1 51:3 52:3 53:3 82:1 253:0
0 1:6 2:6 4:7 5:2 6:2 9:3 10:5 11:1 12:6 13:2 15:4 16:2 20:2 22:2 23:2 24:2 29:2 41:2 74:1 97:1 115:1 116:1 117:1 253:0
0 4:10 5:8 9:6 10:5 11:4 12:7 13:3 15:3 16:1 20:2 22:1 23:3 24:3 28:2 41:1 54:1 62:2 93:1 100:1 107:2 253:0
0 1:13 2:14 3:3 4:7 5:8 6:2 7:2 9:7 10:5 11:4 14:4 15:2 16:1 23:2 24:2 28:2 33:4 34:2 66:1 94:2 95:1 96:1 253:0
0 4:1 5:1 9:1 15:1 20:1 74:2 75:1 116:1 117:2 159:1 253:0
0 1:6 2:6 4:5 5:7 9:14 10:1 11:13 12:1 13:1 14:2 15:2 16:1 23:2 24:1 28:3 29:2 35:2 41:2 253:0
0 1:12 2:12 3:2 4:2 6:4 7:2 8:1 12:1 13:1 14:4 15:2 17:2 18:1 19:2 21:1 25:1 33:2 34:1 136:1 253:0
0 1:10 2:9 3:2 4:4 5:4 6:4 7:2 8:1 9:4 10:1 11:1 23:2 24:2 28:2 88:1 114:2 253:0
0 1:14 2:15 3:3 4:6 5:2 6:5 7:2 8:1 9:2 10:2 14:2 15:4 16:2 20:2 22:1 23:3 24:4 25:1 28:1 66:2 253:0
0 1:6 2:6 4:8 5:1 6:2 9:3 10:10 11:3 14:2 15:3 16:1 20:3 253:0
0 1:12 2:10 3:4 4:9 5:4 6:6 7:6 8:3 9:3 10:6 11:3 14:1 15:2 16:1 20:1 23:1 24:1 25:2 28:1 33:2 34:1 37:1 103:1 253:0
0 1:10 2:9 3:2 4:7 5:3 6:3 7:2 8:1 9:5 10:6 11:4 23:2 24:3 25:1 28:1 29:1 33:6 34:3 36:1 253:0
0 4:6 5:3 9:5 10:4 11:4 15:5 16:1 20:7 23:1 28:2 32:2 34:2 35:1 112:4 113:1 253:0
0 1:11 2:14 4:4 6:2 10:3 14:2 15:2 16:1 23:1 24:2 253:0
0 1:10 2:9 3:2 4:11 5:5 6:7 7:2 8:1 9:6 10:6 11:6 25:1 29:1 33:2 34:1 36:1 253:0
0 4:21 10:31 12:3 13:1 15:1 20:3 118:1 119:1 253:0
0 1:6 2:6 4:2 5:1 6:2 9:2 10:1 15:2 16:1 20:2 32:1 38:1 39:1 40:1 141:1 253:0
0 13:1 27:1 133:1 253:0
0 4:11 10:19 15:1 20:2 253:0
0 1:6 2:6 9:3 29:2 35:1 39:2 40:1 58:1 59:1 60:1 61:2 62:1 63:2 64:2 65:1 92:2 253:0
0 1:6 2:6 4:1 5:1 9:2 11:1 23:1 24:1 28:1 29:2 253:0
0 4:1 15:2 16:1 20:1 34:6 111:3 112:4 113:4 253:0
0 1:8 2:7 3:2 4:6 5:4 6:4 7:4 8:2 9:5 10:4 11:2 14:2 15:2 16:1 23:1 24:2 29:1 33:4 34:2 36:3 37:1 58:2 59:1 60:1 61:2 62:1 63:2 64:2 65:1 253:0
0 1:6 2:6 4:2 9:1 14:2 15:3 20:2 29:2 50:1 51:3 52:3 53:3 74:1 82:3 97:1 115:1 116:1 117:1 253:0
0 1:12 2:12 3:4 4:2 5:1 6:2 7:4 8:2 9:4 11:1 15:2 20:2 23:1 24:1 28:1 29:3 33:2 34:1 36:1 37:1 66:2 67:2 68:1 74:1 75:1 97:1 253:0
0 1:12 2:12 4:8 5:3 6:6 9:3 10:6 11:3 12:2 13:1 14:6 15:5 16:1 20:2 23:1 24:2 26:2 27:1 54:1 253:0
0 1:11 2:9 3:5 4:5 5:1 6:8 7:5 8:4 9:3 10:1 11:3 23:1 24:1 25:2 28:1 37:1 253:0
0 1:12 2:12 4:7 5:4 6:2 9:6 10:4 11:6 15:1 20:2 29:4 62:2 90:1 91:1 92:4 93:1 253:0
0 4:27 10:38 12:3 13:1 15:4 16:1 20:7 22:1 23:3 24:5 253:0
0 4:4 5:6 9:9 11:9 23:1 28:2 35:1 253:0
0 4:19 5:4 9:3 10:19 11:3 12:3 13:1 15:9 16:4 20:9 22:3 23:3 24:2 28:1 41:1 55:2 253:0
0 1:8 2:7 3:2 4:2 6:4 7:4 8:2 9:2 10:1 14:6 15:6 16:3 29:1 36:3 37:1 253:0
0 4:4 5:4 9:4 10:2 11:3 15:1 20:2 23:2 24:2 28:2 253:0
0 4:1 5:1 9:1 15:1 20:1 253:0
0 1:6 2:5 3:6 4:9 5:2 6:3 7:8 8:3 9:2 10:9 25:1 29:1 36:1 37:2 66:1 90:1 91:1 94:2 95:1 96:1 253:0
0 1:6 2:6 4:4 6:4 10:3 14:2 15:1 253:0
0 1:13 2:15 3:2 4:3 5:5 6:2 7:4 8:2 9:6 11:4 23:1 24:1 28:1 36:2 37:1 58:2 59:1 60:1 61:2 62:1 63:2 64:2 65:1 74:1 92:2 97:1 253:0
0 1:6 2:6 4:9 5:11 6:2 9:12 10:6 11:9 15:1 20:1 22:1 23:5 24:3 28:6 35:2 62:2 93:1 100:1 107:4 253:0
0 1:6 2:6 4:10 5:5 6:4 9:5 10:8 11:2 14:2 15:1 23:1 24:1 28:1 29:2 33:2 34:1 58:3 59:2 61:4 63:2 65:1 171:1 253:0
0 1:6 2:6 4:4 5:3 6:2 9:3 10:2 11:3 118:1 119:1 253:0
0 1:18 2:18 3:4 4:5 5:1 6:10 7:6 8:2 9:1 15:3 16:1 20:2 22:1 23:1 24:1 25:2 37:2 66:2 94:2 95:3 103:2 144:2 253:0
0 1:18 2:18 4:5 6:2 10:3 14:8 15:9 16:4 20:5 22:1 23:1 24:1 253:0
0 1:6 2:6 4:8 6:4 10:8 14:2 15:3 16:1 20:2 22:1 23:1 24:1 253:0
0 1:6 2:6 4:6 5:2 6:2 9:8 10:5 11:5 23:2 24:2 28:2 29:4 35:1 38:1 39:2 40:1 88:1 114:4 253:0
0 4:6 5:2 9:1 10:8 15:1 20:1 22:1 23:1 24:1 34:2 112:2 113:1 253:0
0 1:12 2:12 4:12 5:2 6:6 9:2 10:8 11:1 14:2 15:5 16:1 20:5 253:0
0 1:12 2:12 4:9 5:4 6:4 9:3 10:8 11:3 14:2 15:2 20:2 253:0
0 1:12 2:12 4:3 6:4 10:1 12:2 13:1 14:10 15:7 16:1 20:2 23:1 24:2 54:2 253:0
0 1:6 2:3 3:6 4:4 5:6 6:2 7:6 8:3 9:9 11:9 15:2 16:1 20:1 22:1 23:2 24:1 25:2 26:2 27:1 28:2 29:1 32:2 36:1 253:0
0 4:8 5:5 9:5 10:6 11:4 12:2 13:1 15:2 20:3 22:1 23:2 24:2 28:1 39:1 40:1 41:1 62:2 93:1 106:1 107:2 253:0
0 1:1 3:2 4:7 5:3 6:1 7:4 8:2 9:5 10:7 11:1 12:2 13:1 15:2 20:3 23:1 24:1 25:1 28:1 29:1 35:1 36:1 37:1 38:1 39:2 40:1 66:2 253:0
0 1:12 2:12 4:6 5:6 9:13 10:4 11:11 23:2 26:2 27:1 28:4 29:8 35:2 253:0
0 1:6 2:6 4:2 9:1 10:1 14:2 15:5 16:2 20:4 22:1 23:1 26:2 27:1 28:1 32:1 253:0
0 4:1 5:1 9:4 11:2 12:1 13:1 23:2 24:1 28:3 34:1 35:1 41:1 112:1 179:1 253:0
0 1:6 2:6 4:12 5:8 6:2 9:5 10:7 11:4 15:3 16:1 20:3 22:2 23:3 24:3 28:1 62:4 93:2 107:6 164:1 253:0
0 4:22 10:34 12:3 13:1 15:2 20:5 23:1 24:2 34:1 112:3 253:0
0 1:6 2:6 4:11 5:4 6:4 9:3 10:11 11:3 14:4 15:4 16:2 23:1 24:2 253:0
0 1:6 2:6 4:6 5:5 6:2 9:9 10:2 11:9 12:2 13:1 15:1 20:1 22:1 23:2 24:3 29:4 33:4 34:3 41:1 112:1 253:0
0 1:12 2:12 4:10 5:9 6:6 9:6 10:6 11:4 15:4 16:2 20:4 22:2 23:4 24:4 28:2 55:1 62:2 93:1 100:1 107:4 253:0
0 1:2 2:1 3:5 4:6 5:1 7:8 8:4 9:2 10:4 15:4 16:2 20:4 22:2 23:2 24:2 36:2 37:3 66:2 253:0
0 1:6 2:6 4:15 5:3 6:2 9:3 10:18 11:3 12:2 13:1 15:1 20:3 253:0
0 1:8 2:7 3:6 4:8 5:7 6:1 7:8 8:4 9:11 10:5 11:8 23:1 24:1 25:1 28:1 29:3 36:3 37:2 66:2 253:0
0 1:6 2:6 4:8 5:7 6:2 9:5 10:6 11:4 15:3 16:1 20:3 22:1 23:3 24:3 26:4 27:2 28:2 62:2 93:1 100:1 107:4 253:0
0 4:6 10:6 27:6 76:12 253:0
0 1:14 2:15 3:3 4:7 5:6 6:4 7:2 8:1 9:5 10:4 11:4 23:1 24:1 28:1 253:0
0 1:10 2:8 3:4 4:3 5:3 6:4 7:6 8:2 9:9 11:7 23:3 24:2 25:2 28:4 29:2 35:1 36:2 37:1 66:2 94:2 95:1 253:0
0 1:6 2:6 4:11 5:8 9:8 10:7 11:7 14:2 15:4 16:2 20:4 23:1 24:1 28:1 29:2 253:0
0 1:12 2:12 4:4 6:6 10:3 15:1 20:1 22:1 23:1 24:1 33:2 34:1 253:0
0 1:6 2:6 4:2 5:1 6:2 9:3 10:1 11:1 23:2 24:1 28:3 35:1 253:0
0 1:10 2:9 3:2 4:2 5:2 6:2 7:2 8:1 9:4 11:2 12:2 13:1 15:1 20:1 23:1 24:1 28:1 29:1 36:1 41:1 54:1 58:2 59:1 60:1 61:2 62:1 63:2 64:2 65:1 92:2 253:0
0 1:7 2:6 3:2 4:5 5:4 6:3 7:4 8:2 9:9 10:2 11:7 14:4 15:3 20:2 23:2 24:1 25:1 28:3 29:1 35:1 36:1 37:1 66:2 253:0
0 1:6 2:6 4:9 5:3 6:8 9:3 10:7 11:1 14:2 15:1 38:1 39:1 40:1 72:1 253:0
0 1:6 2:6 4:3 5:2 6:2 9:1 10:2 15:1 20:2 253:0
0 1:12 2:12 4:8 5:3 6:4 9:4 10:6 11:2 15:1 20:1 22:1 23:1 24:1 26:2 27:1 29:2 58:2 59:1 60:1 61:2 62:1 63:2 64:2 65:1 92:2 253:0
0 1:18 2:19 3:4 4:4 5:4 6:7 7:4 8:1 9:6 11:6 25:1 29:1 36:1 94:2 95:1 253:0
0 4:22 10:33 12:5 13:2 23:2 24:4 253:0
0 1:12 2:12 4:6 5:7 6:4 9:6 10:1 11:6 15:3 16:1 20:3 22:1 23:1 24:1 26:2 27:1 253:0
0 1:8 2:6 3:9 4:5 5:1 6:4 7:13 8:5 9:1 10:1 14:1 15:2 16:1 18:1 19:2 21:2 25:4 34:1 37:3 66:2 94:5 95:2 103:1 112:2 136:2 253:0
0 4:23 10:35 12:5 13:2 15:2 20:5 23:2 24:4 34:1 112:3 253:0
0 1:9 2:11 3:2 4:7 5:4 6:2 7:2 8:1 9:3 10:6 11:1 14:3 15:4 16:2 20:1 23:2 24:2 28:2 34:1 103:1 112:2 253:0
0 1:4 2:3 3:2 4:9 6:6 7:2 8:1 9:1 10:7 25:2 29:2 253:0
0 1:12 2:12 4:8 6:6 10:9 14:2 15:2 16:1 23:2 24:4 253:0
0 4:7 5:5 9:4 10:6 11:3 12:1 13:1 23:2 24:2 28:2 34:2 113:1 179:2 253:0
0 1:5 2:3 3:4 4:10 5:3 6:3 7:6 8:3 9:3 10:9 11:1 15:1 20:1 22:1 23:2 24:2 25:1 28:1 29:1 34:3 36:1 37:1 66:2 112:3 113:3 253:0
0 1:12 2:9 3:7 4:7 5:3 6:7 7:7 8:2 9:5 10:1 11:4 15:2 16:1 20:2 25:3 26:2 27:1 29:2 33:2 34:1 36:2 37:1 94:5 95:2 253:0
0 1:2 2:1 3:2 4:5 5:2 6:2 7:4 8:2 9:2 10:4 11:1 12:2 13:1 37:1 253:0
0 1:6 2:6 4:6 5:5 6:2 7:7 8:2 9:4 10:1 11:3 23:1 24:1 25:7 28:1 33:2 34:1 37:3 44:1 45:1 66:2 94:2 95:1 102:1 174:1 175:1 176:1 253:0
0 1:8 2:9 3:3 4:11 5:5 6:3 7:2 8:1 9:4 10:12 11:3 23:1 24:1 25:1 28:1 66:2 253:0
0 1:9 2:7 3:4 4:8 5:6 6:5 7:8 8:4 9:6 10:4 11:2 15:2 16:1 20:2 23:1 24:1 25:1 26:2 27:1 28:1 29:1 33:2 34:1 36:3 37:2 66:2 253:0
0 1:3 2:2 4:2 5:1 6:1 9:3 11:1 15:2 16:1 17:2 18:1 19:2 20:1 21:1 22:1 23:1 28:1 29:1 32:1 40:1 72:1 74:1 88:1 89:1 97:1 114:2 115:1 116:1 117:1 153:1 253:0
0 1:4 2:4 3:4 4:7 5:2 7:6 8:3 9:4 10:8 11:3 29:1 36:1 37:2 58:1 59:1 60:1 61:2 62:1 63:2 64:2 65:1 107:1 253:0
0 1:10 2:9 3:2 4:11 5:5 6:9 7:2 8:1 9:4 10:9 11:2 23:2 24:2 25:1 28:2 33:2 34:1 253:0
0 4:24 10:35 12:3 13:1 15:2 16:1 20:2 22:1 23:3 24:5 253:0
0 4:26 10:36 12:3 13:1 15:5 16:2 20:8 22:2 23:4 24:6 253:0
0 1:6 2:6 4:16 6:4 10:24 14:2 15:3 16:1 20:3 118:1 119:1 253:0
0 1:6 2:6 4:13 5:7 6:4 9:8 10:11 11:7 12:2 13:1 15:1 20:1 22:1 23:2 24:3 29:4 33:2 34:1 41:1 90:1 91:1 253:0
0 1:7 2:6 3:1 4:2 5:1 6:1 7:2 8:1 9:5 11:1 25:1 30:2 31:1 35:1 36:1 38:1 39:3 40:2 42:1 43:1 44:2 45:1 59:1 60:1 61:2 62:3 63:2 64:2 65:1 92:2 93:1 107:2 142:1 199:1 253:0
0 1:12 2:12 4:7 5:5 9:7 10:6 11:6 23:1 24:1 26:2 27:1 28:1 29:4 62:2 92:4 93:1 253:0
0 1:8 2:7 3:2 4:6 5:3 6:2 7:4 8:2 9:5 10:3 11:4 12:2 13:1 14:2 15:4 16:1 20:3 23:1 24:1 28:1 29:1 33:4 34:2 36:3 37:1 54:1 253:0
0 1:12 2:12 4:5 5:3 6:4 9:2 10:3 11:1 14:8 15:7 16:2 20:2 55:1 253:0
0 1:9 2:10 3:3 7:2 8:1 14:2 15:1 26:4 27:2 253:0
0 1:13 2:12 3:7 4:8 5:6 6:6 7:8 8:3 9:9 10:3 11:7 25:2 29:1 33:2 34:1 36:3 37:1 66:1 94:2 95:1 96:1 253:0
0 1:8 2:9 3:3 4:2 5:1 6:2 7:2 8:1 9:3 10:1 11:3 14:2 15:2 16:1 253:0
0 1:10 2:9 3:2 4:6 5:3 7:2 8:1 9:6 10:3 11:6 15:4 16:2 20:3 22:1 23:1 28:1 29:3 32:1 36:1 62:2 92:4 93:1 253:0
0 1:10 2:8 3:4 4:8 5:5 6:6 7:6 8:2 9:6 10:1 11:4 12:2 13:1 14:2 15:4 16:2 20:3 23:1 24:1 25:2 28:1 37:1 40:1 66:1 72:2 88:1 89:1 94:2 95:1 96:1 114:2 253:0
0 1:10 2:8 3:5 4:6 5:3 6:3 7:5 8:2 9:5 10:5 11:4 14:2 15:2 16:1 25:1 29:1 34:3 36:1 37:1 94:3 95:1 111:3 113:3 253:0
0 116:1 128:1 233:1 253:0
0 4:6 5:6 9:5 10:4 11:4 15:1 20:1 22:1 23:3 24:3 28:2 62:2 93:1 100:1 107:1 253:0
0 1:12 2:12 4:11 5:5 6:4 9:6 10:7 11:4 12:6 13:2 15:4 16:2 20:4 22:2 23:2 24:2 29:2 41:2 74:1 97:1 115:1 116:1 117:1 253:0
0 4:2 5:2 9:1 10:1 15:1 20:1 22:1 23:1 24:1 253:0
0 4:3 5:2 9:1 10:1 15:2 20:2 22:2 23:2 24:2 62:2 93:1 107:2 253:0
0 4:16 5:2 9:3 10:19 11:3 12:7 13:2 15:2 16:1 20:1 22:1 23:3 24:3 28:2 32:1 253:0
0 1:6 2:6 4:3 5:3 9:2 10:1 14:2 15:2 16:1 20:1 23:1 24:1 26:2 27:1 28:1 88:1 114:2 253:0
0 1:6 2:6 4:9 5:4 6:2 9:3 10:11 11:3 15:2 16:1 20:1 26:4 27:2 253:0
0 4:11 10:19 15:1 20:2 253:0
0 1:6 2:6 4:2 5:1 6:2 9:5 10:1 11:2 35:2 39:4 40:2 253:0
0 1:6 2:6 4:16 5:4 6:4 9:3 10:21 11:3 12:2 13:1 14:4 15:4 16:1 20:5 253:0
0 1:12 2:12 4:5 5:1 6:4 9:2 10:3 11:1 15:1 20:3 23:1 24:1 28:1 29:2 33:2 34:4 62:2 63:2 64:4 65:1 90:1 91:1 92:2 93:1 107:1 112:3 113:3 253:0
0 4:23 10:32 12:7 13:2 15:1 20:2 23:2 24:4 253:0
0 4:16 10:14 12:8 13:2 23:2 24:4 253:0
0 1:9 2:5 3:9 4:2 5:1 6:5 7:11 8:5 9:4 11:1 23:1 24:1 25:1 28:1 29:3 33:4 34:2 36:1 37:2 66:2 94:3 95:1 253:0
0 1:6 2:6 4:5 5:3 6:2 9:3 11:3 14:2 15:4 16:2 20:3 22:2 23:2 24:2 253:0
0 1:12 2:12 4:6 5:1 9:3 10:6 11:1 15:1 20:1 22:1 23:2 24:2 28:1 29:4 88:1 114:3 253:0
0 4:6 10:6 15:2 20:4 74:4 75:2 116:2 117:4 159:2 253:0
0 4:3 5:3 9:3 11:3 15:3 20:3 74:6 75:3 116:3 117:6 159:3 253:0
0 1:9 2:10 3:3 4:8 5:3 6:5 7:2 8:1 9:2 10:5 11:1 15:1 20:2 25:1 34:6 112:6 113:6 253:0
0 1:1 3:2 4:6 5:2 6:1 7:4 8:2 9:7 10:4 11:6 15:1 20:2 23:2 24:1 25:1 28:3 29:1 35:1 36:1 37:1 66:2 253:0
0 1:4 2:3 3:2 4:5 5:2 6:3 7:2 8:1 9:3 10:3 11:1 14:1 15:3 16:1 20:3 23:1 24:1 25:1 28:1 29:2 34:6 103:1 112:6 113:6 253:0
0 1:12 2:12 3:5 4:3 5:1 6:2 7:4 8:2 9:2 10:1 11:1 29:2 33:2 34:1 87:2 88:1 114:2 253:0
0 1:8 2:9 4:4 5:3 6:3 9:3 10:1 11:1 38:1 39:1 40:1 42:3 43:1 44:2 72:1 102:1 253:0
0 1:6 2:6 4:8 5:6 6:2 9:4 10:6 11:1 23:1 24:1 28:1 253:0
0 1:6 2:6 4:13 5:4 6:4 9:3 10:12 11:3 14:4 15:5 16:2 20:3 34:1 112:1 253:0
0 1:11 2:11 3:5 4:6 5:1 6:5 7:4 8:2 9:1 10:1 12:4 13:2 15:2 16:1 20:1 25:3 38:1 40:1 41:1 54:1 72:2 253:0
0 1:16 2:15 3:2 4:7 5:5 6:8 7:2 8:1 9:5 10:4 11:4 23:2 24:2 28:2 29:2 33:2 34:4 90:1 91:1 112:3 113:3 253:0
0 1:6 2:6 4:12 5:3 6:4 9:3 10:16 11:3 14:2 15:2 16:1 253:0
0 4:11 5:9 9:7 10:10 11:6 15:3 16:1 20:5 22:1 23:3 24:2 28:3 32:1 253:0
0 1:17 2:15 3:5 4:6 5:3 6:11 7:5 8:4 9:3 11:3 15:2 16:1 20:2 23:1 24:1 25:1 28:1 37:1 90:1 91:1 253:0
0 1:10 2:9 3:2 4:4 5:1 6:5 7:4 8:1 9:4 10:1 11:3 15:3 16:1 20:3 22:1 23:1 25:3 28:1 29:2 32:1 33:2 34:1 37:1 50:1 51:3 52:3 53:3 82:1 94:2 95:3 96:2 144:2 253:0
0 1:18 2:18 4:8 5:1 6:6 7:2 9:2 10:4 11:1 12:2 13:1 14:4 15:4 16:2 20:2 23:2 24:3 25:2 28:1 29:2 37:1 54:1 94:2 95:3 144:2 253:0
0 4:1 27:1 76:1 253:0
0 1:10 2:9 3:2 4:6 6:2 7:2 8:1 10:4 14:2 15:6 16:3 20:7 22:2 23:2 24:2 26:2 27:1 253:0
0 4:1 5:1 9:4 11:3 15:1 20:1 22:1 23:1 24:1 35:1 39:2 40:1 50:1 51:2 52:2 53:1 77:1 78:1 80:2 81:1 253:0
0 1:6 2:6 4:12 5:9 6:2 9:6 10:12 11:4 15:4 16:2 20:2 22:2 23:4 24:4 28:2 55:1 62:2 93:1 100:1 107:4 253:0
0 1:12 2:12 4:6 5:5 6:4 9:3 10:4 11:1 14:2 15:2 16:1 20:1 23:1 24:1 28:1 33:2 34:1 253:0
0 1:15 2:15 3:6 4:4 5:5 6:6 7:6 8:2 9:9 11:7 23:1 24:1 28:1 29:2 36:2 66:1 94:2 95:1 96:1 253:0
0 1:6 2:6 4:4 5:5 6:2 9:5 11:4 15:2 16:1 20:2 23:1 24:1 26:2 27:1 28:1 253:0
0 1:12 2:12 3:4 7:4 8:2 9:2 11:1 15:2 16:1 22:1 23:1 28:1 32:1 36:2 37:1 62:2 92:4 93:1 253:0
0 4:4 5:3 9:2 10:3 15:1 20:1 22:1 23:2 24:2 28:1 253:0
0 1:6 2:6 4:10 5:9 6:2 9:6 10:6 11:4 15:6 16:3 20:4 22:3 23:4 24:3 28:2 55:2 62:2 93:1 100:1 107:4 253:0
0 4:25 10:36 12:3 13:1 15:5 16:2 20:11 23:2 24:4 27:1 34:1 55:1 76:1 112:3 253:0
0 1:8 2:7 3:2 4:2 6:4 7:4 8:2 9:2 10:1 14:4 15:4 16:2 29:1 30:2 31:1 36:3 37:1 253:0
0 4:5 10:4 15:6 16:2 20:10 253:0
0 1:12 2:12 9:2 29:4 62:2 63:2 64:4 65:1 92:4 93:1 253:0
0 1:6 2:6 4:7 5:1 6:2 9:2 10:6 23:1 24:1 28:1 29:2 40:2 72:4 88:2 89:2 90:2 91:2 114:2 253:0
0 1:6 2:6 4:12 5:2 6:2 9:3 10:19 11:1 15:1 20:2 23:1 28:2 35:1 58:1 59:1 60:1 61:2 62:1 63:2 64:2 65:1 92:2 253:0
0 1:12 2:12 4:5 6:4 10:1 12:6 13:3 14:10 15:9 16:4 23:1 24:2 253:0
0 1:6 2:6 4:10 5:4 6:2 9:3 10:9 11:3 15:4 16:2 20:5 22:2 23:2 24:2 253:0
0 1:4 2:3 3:2 4:3 5:2 6:2 7:2 8:1 9:3 10:1 11:1 12:4 13:2 23:1 24:1 28:1 41:2 253:0
0 1:6 2:6 4:9 5:1 6:2 9:3 10:11 11:3 14:2 15:2 20:3 253:0
0 1:10 2:7 3:8 4:9 5:5 6:1 7:9 8:3 9:7 10:10 11:5 23:1 24:1 25:1 28:1 29:4 33:1 34:1 36:4 37:1 94:5 95:2 200:1 253:0
0 1:10 2:9 3:2 4:3 5:2 6:2 7:2 8:1 9:5 10:1 11:2 23:1 28:2 29:4 35:1 58:1 59:1 60:1 61:2 62:1 63:2 64:2 65:1 92:2 253:0
0 1:14 2:13 3:1 4:6 5:2 6:7 7:1 9:5 10:3 11:4 15:2 16:1 17:1 19:1 20:2 25:1 29:1 33:2 34:1 35:1 39:2 40:1 69:1 70:1 71:1 153:1 253:0
0 4:7 5:2 9:5 10:5 11:4 12:2 13:1 15:4 16:1 20:6 23:2 24:1 28:3 32:1 35:1 41:1 253:0
0 1:3 2:3 3:4 7:6 8:2 37:2 62:1 92:1 94:2 95:1 110:1 253:0
0 1:6 2:6 4:7 5:2 9:3 10:8 11:1 26:2 27:1 29:2 35:1 58:1 59:2 60:2 61:4 62:2 63:4 64:4 65:2 92:4 253:0
0 1:12 2:12 4:9 6:6 10:5 12:4 13:2 14:4 15:6 16:3 20:7 22:1 23:1 24:1 253:0
0 4:14 5:3 9:1 10:24 253:0
0 1:13 2:14 3:3 4:2 5:2 7:4 8:2 9:7 11:5 12:2 13:1 14:2 15:2 16:1 23:1 24:1 26:2 27:1 28:1 29:5 33:2 34:3 36:1 37:1 111:2 113:1 253:0
0 1:12 2:12 4:7 5:4 6:6 9:4 10:3 11:2 12:2 13:1 14:4 15:4 16:1 20:2 23:1 24:1 28:1 29:2 253:0
0 1:12 2:12 4:7 5:1 6:8 9:3 10:5 11:3 15:2 16:1 20:4 33:2 34:1 90:1 91:1 253:0
0 1:6 2:6 4:12 5:6 6:2 9:4 10:11 11:6 15:3 16:1 20:4 22:1 23:1 24:1 253:0
0 1:10 2:9 3:2 4:4 5:2 6:2 7:2 8:1 9:5 10:2 11:4 14:2 15:2 16:1 20:1 23:2 24:1 28:2 29:1 36:1 62:2 93:1 100:1 107:2 109:1 253:0
0 1:13 2:14 3:3 4:7 5:3 6:5 7:6 8:1 9:3 10:3 11:3 14:2 15:2 16:1 20:1 25:3 37:2 94:4 95:2 253:0
0 1:6 2:6 4:13 5:5 6:2 9:4 10:12 11:6 15:5 16:2 20:8 22:1 23:1 24:1 253:0
0 50:3 51:9 52:9 53:9 168:2 253:0
0 1:6 2:6 4:3 5:1 9:3 10:1 11:3 12:4 13:2 23:1 24:1 28:1 29:2 41:1 253:0
0 1:10 2:9 3:2 4:4 5:1 6:3 7:2 8:1 9:3 10:3 11:3 15:2 16:1 20:4 25:1 253:0
0 1:12 2:12 4:4 5:5 6:6 9:4 10:1 11:3 15:1 20:2 26:2 27:1 32:1 38:1 39:1 40:1 72:1 253:0
0 1:8 2:9 3:3 4:3 5:2 6:2 7:2 8:1 9:1 10:2 14:2 15:2 20:1 22:1 23:1 24:1 253:0
0 1:8 2:7 3:2 4:12 5:5 6:3 7:4 8:2 9:9 10:9 11:7 15:1 20:2 23:1 24:1 25:1 28:1 29:5 36:3 37:1 40:1 72:1 88:1 89:1 90:1 91:1 114:1 253:0
0 1:10 2:7 3:6 4:4 5:1 6:4 7:6 8:2 9:3 10:1 11:1 14:4 15:4 16:2 20:1 25:2 29:2 36:2 90:1 91:1 94:2 95:1 253:0
0 4:6 5:3 9:2 10:5 11:1 15:1 20:1 22:1 23:2 24:2 28:1 253:0
0 4:3 5:1 9:1 10:2 38:1 40:1 62:2 63:1 64:2 93:1 98:1 107:1 163:1 253:0
0 1:1 3:2 4:6 5:2 6:1 7:4 8:2 9:7 10:4 11:6 23:3 24:3 25:1 28:3 29:1 35:1 36:1 37:1 66:2 253:0
0 1:10 2:9 3:2 4:6 5:1 6:4 7:2 8:1 9:1 10:4 12:3 13:1 14:4 15:4 16:2 38:1 40:1 72:2 253:0
0 1:12 2:10 3:4 4:7 5:5 6:8 7:4 8:1 9:6 11:4 12:3 13:2 14:2 15:4 16:2 20:1 23:2 24:2 25:2 28:2 33:2 34:1 41:1 66:1 94:2 95:1 96:1 253:0
0 1:8 2:9 3:3 4:5 5:3 6:1 7:2 8:1 9:2 10:2 11:1 14:2 15:3 16:1 20:3 25:1 253:0
0 1:7 2:6 3:2 4:11 5:8 6:4 7:4 8:2 9:8 10:7 11:7 15:1 20:1 22:1 23:3 24:2 25:2 28:3 35:1 37:1 253:0
0 1:6 2:6 4:10 5:2 6:2 9:3 10:6 11:1 12:6 13:2 15:6 16:3 20:6 22:2 23:2 24:2 29:2 41:2 74:1 97:1 115:1 116:1 117:1 253:0
0 1:8 2:9 3:3 4:11 5:6 6:2 7:2 8:1 9:4 10:7 11:2 15:2 16:1 20:3 22:1 23:4 24:5 28:2 40:1 72:1 128:1 208:1 253:0
0 4:21 10:23 12:5 13:2 15:6 16:1 20:10 22:2 23:2 24:2 253:0
0 1:10 2:9 3:2 4:3 5:5 6:2 7:2 8:1 9:8 11:7 14:4 15:4 16:2 23:1 26:2 27:1 28:2 29:2 34:2 35:1 55:1 111:4 113:1 253:0
0 1:4 2:3 3:2 4:4 5:5 7:2 8:1 9:5 10:4 11:4 26:3 27:2 29:2 132:1 253:0
0 1:10 2:9 3:2 4:9 5:2 6:7 7:2 8:1 9:3 10:6 11:3 12:4 13:1 25:1 253:0
0 4:5 5:5 9:7 10:2 11:5 12:2 13:1 23:2 24:1 27:1 28:3 35:1 39:1 40:1 41:1 72:1 76:1 133:1 253:0
0 1:8 2:9 3:3 4:11 5:5 6:2 7:2 8:1 9:3 10:11 11:3 15:2 16:1 20:3 22:1 23:2 24:3 253:0
0 1:5 2:3 3:2 4:2 6:2 7:2 12:2 13:1 25:1 42:2 43:1 44:2 94:2 95:1 102:1 253:0
0 1:8 2:9 4:2 5:2 6:1 9:3 10:1 11:1 23:1 28:2 35:1 42:3 43:1 44:2 74:1 97:2 102:1 253:0
0 1:8 2:7 3:2 4:3 6:5 7:4 8:2 9:2 10:1 25:1 26:2 27:1 29:1 36:3 37:1 253:0
0 1:16 2:16 3:4 4:7 5:2 6:4 7:6 8:3 9:2 10:5 11:1 14:4 15:5 16:2 20:4 23:1 24:2 26:2 27:1 29:1 36:1 37:2 253:0
0 1:9 2:8 3:6 4:5 5:4 6:3 7:8 8:4 9:5 10:1 11:4 15:2 16:1 20:2 25:1 29:1 34:3 36:3 37:2 112:3 113:3 253:0
0 4:6 5:4 9:3 10:5 11:1 23:1 24:1 28:1 62:1 63:2 64:2 65:1 84:1 85:1 86:2 107:1 253:0
0 1:6 2:6 4:19 6:2 10:19 12:2 13:1 15:5 16:1 20:9 22:1 23:1 24:1 253:0
0 1:6 2:6 4:1 6:2 15:1 20:1 22:1 23:1 24:1 253:0
0 1:14 2:11 3:6 4:7 5:1 6:12 7:6 8:1 9:3 10:2 14:2 15:2 16:1 20:2 25:2 26:1 27:1 29:1 33:2 34:1 36:1 66:2 94:4 95:2 96:2 132:1 253:0
0 1:6 2:6 3:4 4:1 5:2 7:2 9:5 11:2 26:2 27:1 29:2 35:1 38:1 39:2 40:1 174:2 176:2 189:1 253:0
0 1:4 2:3 3:2 4:17 5:7 6:5 7:2 8:1 9:5 10:17 11:4 15:4 16:2 20:4 23:1 24:1 25:1 28:1 34:3 112:3 113:3 253:0
0 1:3 2:2 4:6 5:2 6:5 9:3 10:1 11:3 15:4 20:4 22:4 23:4 24:4 29:1 42:2 43:1 44:2 90:1 91:1 102:1 142:1 253:0
0 1:6 2:6 4:4 5:3 6:2 9:2 10:2 11:1 14:4 15:3 20:2 253:0
0 1:14 2:13 3:2 4:1 6:3 7:2 9:5 11:2 14:2 15:2 16:1 23:1 25:1 28:2 29:4 30:2 31:1 33:4 34:2 35:1 66:1 94:2 95:1 96:1 253:0
0 1:18 2:18 4:1 5:1 6:2 9:3 11:3 14:4 15:2 23:1 24:1 28:1 29:4 33:4 34:2 253:0
0 1:3 2:2 4:11 5:3 6:1 9:4 10:10 11:6 15:3 16:1 20:5 22:1 23:1 24:1 42:2 43:1 44:2 102:1 253:0
0 1:12 2:12 4:2 6:4 9:2 11:1 15:1 20:1 22:1 23:1 24:1 26:2 27:1 29:4 253:0
0 1:10 2:9 3:2 4:4 5:1 6:3 7:2 8:1 9:3 10:4 11:3 25:1 26:2 27:1 253:0
0 1:12 2:12 4:6 5:4 6:6 9:5 10:1 11:4 23:1 24:2 29:2 62:2 92:4 93:1 253:0
0 1:14 2:13 3:2 4:8 5:1 6:10 7:8 8:3 9:7 10:5 11:4 12:1 13:1 15:1 20:1 23:1 24:1 25:2 28:1 29:4 33:2 34:1 36:4 37:3 41:1 66:1 94:2 95:1 96:1 253:0
0 1:10 2:7 3:6 4:6 5:3 6:4 7:8 8:4 9:2 10:2 11:1 14:5 15:6 16:3 20:3 23:1 24:1 25:2 28:1 37:1 103:1 253:0
0 1:12 2:12 4:8 5:2 6:4 9:3 10:10 11:3 23:1 24:2 253:0
0 1:6 2:6 4:11 5:4 6:2 9:2 10:11 11:1 14:2 15:3 16:1 20:3 253:0
0 1:12 2:12 4:5 5:3 6:6 9:2 10:3 11:1 14:10 15:8 16:3 253:0
0 1:14 2:15 3:5 4:4 6:1 7:4 8:2 10:3 15:1 20:1 22:1 23:1 24:1 25:1 26:2 27:1 42:2 43:1 44:2 45:1 59:1 60:1 61:2 62:1 63:2 64:2 65:1 92:2 122:2 253:0
0 1:14 2:13 3:2 4:2 6:6 7:2 14:4 15:4 16:2 25:2 30:2 31:1 55:1 94:2 95:1 253:0
0 4:7 10:6 15:1 20:1 22:1 23:1 24:1 62:2 107:3 139:2 140:1 253:0
0 1:11 2:9 3:7 4:6 5:4 6:2 7:8 8:4 9:4 10:2 11:2 17:1 18:1 19:2 21:1 23:1 24:1 25:5 28:1 33:2 34:1 37:1 136:1 253:0
0 4:6 5:2 9:2 10:4 11:1 12:3 13:1 253:0
0 1:16 2:15 3:2 4:8 5:4 6:6 7:2 8:1 9:4 10:5 11:3 12:1 13:1 14:4 15:2 16:1 23:2 24:2 25:2 28:2 253:0
0 1:12 2:12 4:7 6:6 10:3 12:5 13:2 14:8 15:5 16:1 23:1 24:2 253:0
0 1:12 2:12 3:5 4:7 5:3 6:8 7:4 8:2 9:4 10:2 11:3 25:2 66:2 253:0
0 1:4 2:3 3:2 4:6 5:4 6:2 7:2 8:1 9:2 10:4 11:1 14:2 15:3 20:3 25:2 253:0
0 4:13 10:13 12:6 13:2 15:1 20:3 253:0
0 1:6 2:6 4:17 6:4 10:24 14:2 15:2 20:3 118:2 119:1 253:0
0 4:12 5:10 9:11 10:7 11:10 12:2 13:1 15:2 16:1 20:2 22:1 23:2 24:1 28:2 32:1 39:1 40:1 72:1 88:1 89:1 114:2 253:0
0 1:14 2:13 3:2 7:2 9:3 29:5 36:1 58:1 59:1 60:1 61:2 62:1 63:2 64:2 65:1 66:1 92:2 94:2 95:1 96:1 253:0
0 1:6 2:6 4:1 5:1 9:2 11:1 14:2 15:1 23:1 24:1 28:1 29:2 253:0
0 4:14 10:17 12:11 13:3 15:2 20:4 23:1 24:2 253:0
0 1:9 2:8 3:2 4:6 5:2 6:5 7:2 8:1 9:6 10:4 11:6 12:2 13:1 14:2 15:2 16:1 20:3 23:2 24:2 25:1 28:2 29:2 41:1 62:2 63:2 64:4 65:1 92:2 93:1 253:0
0 1:12 2:12 4:3 5:2 9:6 10:3 11:6 29:4 62:2 63:2 64:4 65:1 92:4 93:1 253:0
0 1:12 2:12 4:7 6:4 9:1 10:6 12:3 13:1 14:2 15:3 16:1 20:2 22:1 23:2 24:3 29:2 54:1 74:1 97:1 115:1 116:1 117:1 253:0
0 4:23 10:35 12:5 13:2 15:2 20:3 23:2 24:4 34:1 112:3 253:0
0 4:13 5:6 9:4 10:10 11:2 15:2 20:2 22:2 23:4 24:4 28:2 62:2 107:3 139:2 140:1 253:0
0 1:10 2:9 3:2 4:10 5:2 6:7 7:2 8:1 9:3 10:6 11:3 12:4 13:1 15:2 16:1 20:1 22:1 23:1 25:1 26:2 27:1 28:1 32:1 253:0
0 1:12 2:12 3:4 4:2 5:2 6:4 7:6 8:1 9:2 10:1 26:2 27:1 37:2 66:2 94:4 95:3 96:2 144:1 253:0
0 1:12 2:12 4:2 5:3 9:6 10:1 11:6 29:4 62:2 92:4 93:1 253:0
0 1:12 2:12 4:2 5:2 6:2 9:5 11:2 23:2 24:2 28:2 29:6 253:0
0 4:20 10:30 12:5 13:2 15:1 20:2 253:0
0 1:2 2:1 3:5 7:8 8:4 14:1 15:3 37:3 103:5 253:0
0 1:1 3:1 4:3 5:2 7:1 9:4 11:2 15:4 16:2 17:1 19:1 20:3 22:1 23:1 28:1 29:1 32:1 70:1 71:1 87:1 88:1 94:1 95:1 114:2 153:1 169:1 170:1 253:0
0 1:6 2:6 4:17 6:4 10:17 12:2 13:1 14:2 15:5 16:1 20:7 22:1 23:1 24:1 118:2 119:1 253:0
0 4:8 10:7 15:4 16:2 20:4 22:2 23:1 55:1 253:0
0 1:12 2:12 4:5 5:3 6:4 9:3 10:4 11:3 14:6 15:8 16:4 20:2 22:1 23:1 24:1 253:0
0 1:6 2:6 4:10 6:4 10:9 12:3 13:1 15:1 20:1 22:1 23:2 24:3 253:0
0 4:12 5:6 9:2 10:14 11:1 15:2 16:1 20:3 22:1 23:1 24:1 74:1 97:2 253:0
0 1:8 2:9 3:3 4:9 5:6 6:4 7:2 8:1 9:5 10:7 11:4 12:3 13:1 15:1 20:1 23:1 24:1 28:1 253:0
0 1:12 2:12 4:12 5:4 6:8 9:3 10:10 11:3 15:2 16:1 20:4 253:0
0 1:12 2:12 3:5 4:4 5:3 6:5 7:4 8:2 9:3 10:1 11:1 14:2 15:2 16:1 23:1 24:1 25:1 28:1 33:2 34:1 66:2 74:1 97:2 253:0
0 1:6 2:6 4:3 5:5 6:2 9:5 11:4 14:6 15:6 16:3 253:0
0 1:14 2:15 3:3 4:6 5:2 6:5 7:2 8:1 9:2 10:2 14:2 15:3 16:1 20:2 22:1 23:3 24:4 25:1 28:1 66:2 253:0
0 1:16 2:15 3:2 4:2 5:1 6:5 7:2 8:1 9:5 11:3 23:2 24:1 25:1 28:3 29:3 33:8 34:4 35:1 36:1 253:0
0 4:5 10:5 15:4 20:6 22:3 23:3 24:3 253:0
0 1:9 2:6 3:7 4:4 6:4 7:11 8:6 10:1 25:6 33:2 34:4 37:3 94:2 95:1 112:3 113:3 253:0
0 1:6 2:6 4:9 5:6 6:4 9:5 10:5 11:4 12:1 13:1 14:4 15:4 16:2 23:1 24:1 28:1 34:1 112:1 253:0
0 4:5 10:4 15:4 20:8 31:2 124:2 253:0
0 1:12 2:12 4:3 5:2 6:4 9:4 10:1 11:1 23:1 24:1 26:2 27:1 28:1 29:4 38:1 40:1 72:2 74:1 97:1 115:1 116:1 117:1 253:0
0 1:8 2:7 3:2 4:7 5:7 6:2 7:4 8:2 9:10 10:3 11:6 23:1 24:1 28:1 29:5 36:3 37:1 58:2 59:1 60:1 61:2 62:1 63:2 64:2 65:1 107:1 253:0
0 1:12 2:12 4:6 5:2 6:4 9:4 10:4 11:6 12:4 13:1 253:0
0 1:12 2:12 3:4 4:2 5:1 6:2 7:4 8:2 9:4 11:1 15:2 20:2 23:1 24:1 28:1 29:4 30:2 31:1 33:4 34:2 37:1 66:2 74:1 75:1 97:1 253:0
0 1:12 2:12 3:2 4:4 6:4 7:2 8:1 10:3 15:1 17:2 18:1 19:2 20:1 21:1 22:1 23:1 24:1 25:1 26:2 27:1 136:1 253:0
0 4:12 5:5 9:5 10:15 11:2 15:1 20:2 23:3 24:3 28:3 74:1 97:1 253:0
0 1:12 2:12 4:10 5:2 9:4 10:11 11:2 15:3 16:1 20:3 22:2 23:4 24:4 28:2 29:4 88:1 114:4 253:0
0 1:12 2:12 3:2 4:1 6:2 7:2 8:1 9:2 11:1 14:2 15:1 25:1 29:2 42:2 43:1 44:2 45:1 102:1 253:0
0 1:14 2:13 3:4 4:7 5:3 6:5 7:6 8:3 9:3 10:3 11:3 15:4 16:2 20:3 25:2 37:1 42:2 43:1 44:2 45:1 90:1 91:1 102:1 103:2 253:0
0 1:9 2:8 4:2 5:1 6:3 9:2 14:2 15:1 17:2 18:1 19:2 21:1 23:1 24:1 28:1 29:1 40:1 72:1 74:1 88:1 89:1 97:1 114:1 115:1 116:1 117:1 153:1 253:0
0 1:12 2:10 3:4 4:4 6:5 7:4 8:1 9:1 10:2 14:1 15:1 25:1 29:1 36:1 66:1 94:2 95:1 96:1 103:1 253:0
0 1:6 2:6 4:5 5:3 6:4 9:2 10:2 11:1 34:3 112:3 113:3 253:0
0 1:12 2:12 4:8 5:8 6:4 9:8 10:6 11:7 14:4 15:4 16:2 23:2 24:1 28:3 35:1 253:0
0 1:6 2:5 3:6 4:5 5:3 7:8 8:3 9:6 10:4 11:4 12:1 13:1 14:1 15:4 16:2 20:3 23:1 24:1 26:2 27:1 28:1 29:2 36:2 37:2 66:1 94:2 95:1 96:1 103:1 253:0
0 4:6 5:2 9:5 10:4 11:4 12:2 13:1 15:4 16:1 20:6 23:2 24:1 28:3 32:1 35:1 41:1 253:0
0 1:13 2:14 3:3 4:2 5:1 6:4 7:4 8:2 9:4 11:1 14:6 15:6 16:3 29:3 36:3 37:1 253:0
0 1:5 2:3 3:4 4:3 5:2 6:3 7:6 8:3 9:7 11:6 15:2 16:1 20:2 22:1 23:3 24:2 25:1 28:3 29:1 35:1 36:1 37:1 66:2 253:0
0 1:12 2:12 4:8 5:2 6:6 9:3 10:6 11:3 12:2 13:1 14:6 15:5 16:1 20:3 23:1 24:2 26:2 27:1 50:1 51:3 52:3 53:3 54:1 82:1 253:0
0 1:6 2:6 4:8 6:8 10:5 14:4 15:3 16:1 20:3 253:0
0 1:13 2:12 3:8 4:7 5:8 6:4 7:7 8:3 9:9 10:3 11:9 14:2 15:2 16:1 29:2 33:2 34:1 37:1 94:3 95:1 253:0
0 1:2 2:1 3:5 4:4 5:1 7:8 8:4 9:2 10:3 15:5 16:1 20:8 29:1 32:1 34:1 36:1 37:3 66:2 200:2 253:0
0 1:6 2:6 4:10 5:8 6:2 9:5 10:7 11:4 15:2 20:2 22:2 23:3 24:3 28:1 253:0
0 1:1 3:1 4:7 5:6 6:1 7:2 8:1 9:6 10:3 11:4 12:3 13:1 15:2 20:1 22:1 23:3 24:3 25:1 28:2 36:1 40:1 41:1 42:1 43:1 44:2 45:1 62:2 72:2 73:1 74:1 75:1 93:1 100:1 107:2 142:1 253:0
0 4:7 5:9 9:9 11:9 15:5 20:5 22:5 23:5 24:5 253:0
0 1:6 2:6 4:12 5:3 6:4 9:3 10:16 11:3 14:4 15:3 16:1 20:2 23:1 24:2 253:0
0 1:3 2:2 4:1 6:1 9:3 17:2 18:1 19:2 21:1 23:1 28:2 29:1 35:1 40:1 72:1 74:1 88:1 89:1 97:1 114:1 115:1 116:1 117:1 153:1 253:0
0 1:4 2:3 3:2 4:5 5:1 6:3 7:2 8:1 9:3 10:2 11:3 12:2 13:1 15:1 20:1 22:1 23:2 24:3 25:1 29:1 36:1 41:1 253:0
0 4:13 5:3 7:2 9:2 10:16 11:1 15:1 20:1 22:1 23:1 24:1 25:2 37:1 94:2 95:3 144:2 253:0
0 4:2 5:4 9:5 10:1 11:4 23:1 28:2 35:1 39:1 40:1 72:1 253:0
0 1:6 2:6 4:17 5:8 6:2 9:7 10:23 11:9 15:2 20:3 29:2 32:1 253:0
0 1:3 2:2 4:6 5:5 6:1 9:5 10:6 11:4 17:2 18:1 19:2 21:1 23:1 24:1 26:1 27:1 28:1 234:1 253:0
0 1:6 2:6 4:6 5:6 6:2 9:5 10:3 11:4 23:2 24:2 28:2 33:2 34:1 253:0
0 1:12 2:12 4:6 6:4 10:3 12:6 13:2 14:4 15:6 16:2 20:4 22:2 23:2 24:2 54:2 253:0
0 1:12 2:12 4:7 5:4 6:4 7:4 8:1 9:4 10:3 11:1 14:2 15:2 16:1 23:1 24:1 25:4 26:2 27:1 28:1 29:2 37:2 38:1 40:1 66:2 72:2 94:2 95:1 253:0
0 1:6 2:3 3:6 4:11 5:4 6:4 7:6 8:3 9:5 10:9 11:4 15:3 16:1 20:5 23:1 24:1 25:2 28:1 29:2 36:2 253:0
0 1:7 2:5 3:2 4:9 5:5 6:3 7:2 8:1 9:5 10:3 11:4 12:2 13:1 14:1 15:2 16:1 17:2 18:1 19:2 20:1 21:1 23:1 24:1 28:1 62:2 63:1 64:2 93:1 103:1 107:2 253:0
0 1:8 2:7 3:5 4:4 5:1 6:2 7:8 8:4 9:2 10:2 15:4 16:1 20:4 26:2 27:1 29:1 36:1 37:3 47:1 48:1 49:2 50:1 51:2 52:2 53:1 66:2 82:2 151:1 253:0
0 1:2 2:1 3:2 4:7 5:3 6:2 7:4 8:2 9:6 10:4 11:6 12:2 13:1 15:1 20:1 22:1 23:2 24:3 29:1 36:3 37:1 41:1 253:0
0 1:1 3:2 4:2 5:1 7:4 8:2 9:2 15:1 20:1 25:2 29:1 36:1 37:1 66:2 74:1 97:1 115:1 116:1 117:1 253:0
0 1:12 2:12 4:6 5:3 6:2 9:7 10:5 11:4 14:4 15:4 16:2 20:1 29:4 30:2 31:1 33:2 34:1 38:2 39:2 40:2 72:1 253:0
0 1:9 2:7 3:7 4:6 5:4 6:3 7:8 8:4 9:7 10:3 11:4 15:2 20:2 22:2 23:3 24:3 25:1 28:1 29:3 36:3 37:2 253:0
0 1:13 2:14 3:3 4:3 5:5 7:4 8:2 9:8 10:1 11:7 14:4 15:4 16:2 22:1 23:1 26:2 27:1 28:1 29:3 32:1 33:2 34:1 36:1 37:1 253:0
0 1:5 2:3 3:2 4:11 5:3 6:5 7:6 8:1 9:2 10:7 25:6 37:2 42:2 43:1 44:2 66:3 94:4 95:2 96:1 102:1 253:0
0 1:9 2:6 3:7 4:7 5:1 6:5 7:8 8:3 9:2 10:2 15:4 16:2 17:2 18:1 19:2 20:5 21:2 25:3 36:2 37:2 66:1 94:2 95:2 96:1 144:1 253:0
0 1:12 2:12 4:11 5:5 6:4 9:5 10:13 11:4 23:2 24:2 28:2 253:0
0 1:12 2:12 4:8 5:3 6:6 9:3 10:6 11:1 14:2 15:2 16:1 22:1 23:2 24:1 28:2 32:1 253:0
0 4:12 5:5 9:3 10:8 11:1 12:3 13:1 15:4 16:2 20:6 22:1 23:2 24:2 28:1 253:0
0 1:6 2:6 4:8 5:4 6:2 9:3 10:6 11:3 253:0
0 1:16 2:22 253:0
0 4:3 5:1 9:4 10:1 11:6 15:2 16:1 20:3 22:1 23:1 24:1 253:0
0 4:22 10:33 12:5 13:2 15:2 20:4 23:3 24:6 253:0
0 1:9 2:8 4:7 5:5 6:4 9:7 10:3 11:3 23:2 24:1 28:3 29:2 33:2 34:1 35:1 42:2 43:1 44:2 102:2 118:2 119:1 253:0
0 4:2 5:1 9:3 10:1 11:1 15:1 20:1 22:1 23:1 24:1 35:1 39:2 40:1 253:0
0 1:12 2:12 4:8 5:7 6:6 9:7 10:2 11:5 12:3 13:2 15:3 16:1 20:3 23:2 24:3 28:1 33:4 34:2 35:1 41:2 54:1 62:2 88:1 92:2 93:1 107:1 114:4 253:0
0 1:10 2:9 3:2 4:2 5:3 6:2 7:2 8:1 9:6 11:6 26:2 27:1 29:1 36:1 253:0
0 1:10 2:9 3:2 4:8 5:1 6:4 7:6 8:2 9:5 10:7 11:2 14:2 15:2 16:1 23:2 24:3 25:2 28:1 29:5 36:1 37:2 66:1 94:2 95:1 96:1 253:0
0 1:5 2:4 3:6 4:6 5:3 7:6 8:3 9:3 10:6 11:1 15:1 20:1 29:1 33:2 34:1 36:3 37:1 253:0
0 1:6 2:6 4:5 5:4 6:2 9:4 10:2 11:3 15:1 20:1 22:1 23:1 24:1 27:2 29:2 76:2 253:0
0 1:12 2:12 4:5 5:2 6:4 9:6 10:3 11:6 26:2 27:1 29:4 253:0
0 1:11 2:14 4:3 6:2 10:3 14:2 15:3 16:1 20:1 22:1 23:1 24:1 253:0
0 1:6 2:6 4:3 5:2 6:2 9:2 10:2 11:1 15:1 20:2 253:0
0 1:12 2:12 4:3 5:5 6:2 9:7 11:6 26:2 27:1 29:2 38:1 39:1 40:1 62:2 72:1 92:4 93:1 253:0
0 4:3 10:2 15:2 20:2 22:2 23:3 24:4 253:0
0 1:8 2:6 3:8 4:13 5:2 6:3 7:8 8:4 9:4 10:16 11:3 15:3 16:1 20:6 22:1 23:1 25:1 28:1 29:1 32:1 36:1 37:1 66:2 90:1 91:1 253:0
0 1:12 2:10 3:4 4:15 5:4 6:7 7:4 8:1 9:6 10:12 11:4 15:1 20:1 22:1 23:1 24:1 25:3 29:3 36:1 66:1 94:2 95:1 96:1 253:0
0 1:12 2:12 4:10 5:1 6:8 9:2 10:13 11:1 253:0
0 9:2 23:1 28:2 35:1 253:0
0 1:6 2:6 4:6 5:3 6:2 9:2 10:5 11:1 14:4 15:3 20:2 253:0
0 1:12 2:12 4:4 6:4 10:2 12:4 13:1 15:2 16:1 20:2 22:1 23:1 24:1 62:2 63:2 64:4 65:1 92:2 93:1 253:0
0 1:12 2:12 4:5 5:6 6:8 9:7 11:4 23:1 24:1 28:1 29:2 38:1 39:2 40:2 72:2 88:1 89:1 114:1 253:0
0 1:15 2:16 3:3 4:3 6:2 7:2 8:1 9:2 10:1 11:1 15:4 16:1 20:5 22:1 23:1 24:1 26:2 27:1 29:4 253:0
0 4:19 5:6 9:6 10:26 11:6 253:0
0 1:8 2:7 3:6 4:12 5:11 6:1 7:8 8:4 9:11 10:9 11:8 23:1 24:1 25:1 28:1 29:3 36:3 37:2 66:2 253:0
0 1:6 2:6 4:13 5:3 6:2 9:4 10:12 11:6 15:5 16:2 20:8 22:2 23:2 24:2 253:0
0 1:6 2:6 4:15 5:2 6:2 9:2 10:22 11:1 14:4 15:2 23:1 24:1 28:1 253:0
0 1:6 2:6 4:7 5:5 9:5 10:5 11:4 23:1 24:1 26:4 27:2 28:1 29:2 253:0
0 1:6 2:6 4:3 5:3 9:3 10:1 11:1 14:2 15:2 16:1 20:2 26:4 27:2 38:1 39:1 40:1 72:1 253:0
0 1:11 2:14 9:2 11:1 14:2 15:2 16:1 22:1 23:1 28:1 32:1 253:0
0 1:18 2:18 4:5 5:1 6:8 9:2 10:1 11:1 15:3 16:1 20:3 22:1 23:2 24:3 29:2 32:1 253:0
0 1:6 2:6 4:2 5:2 9:6 11:3 12:1 13:1 23:1 28:2 29:2 35:1 38:1 39:1 40:1 41:1 58:1 59:1 60:1 61:2 62:1 63:2 64:2 65:1 72:1 92:2 253:0
0 4:24 10:33 12:5 13:2 15:6 16:2 20:10 22:2 23:4 24:6 34:1 112:3 253:0
0 4:3 10:2 15:4 20:6 22:2 23:2 24:2 253:0
0 1:6 2:6 4:9 5:4 6:4 9:3 10:6 11:3 23:1 24:2 253:0
0 1:6 2:6 4:8 5:2 6:2 9:3 10:9 11:3 15:2 16:1 20:3 22:1 23:1 24:1 253:0
0 1:17 2:20 4:4 5:1 6:4 9:2 10:2 11:1 14:2 15:2 16:1 20:1 23:2 24:1 28:2 33:2 34:1 62:2 93:1 100:1 107:2 109:1 253:0
0 9:3 11:3 15:1 22:1 23:1 28:1 32:1 253:0
0 1:6 2:6 4:6 6:4 10:6 14:2 15:3 16:1 50:1 51:3 52:3 53:3 55:1 82:1 253:0
0 4:22 10:33 12:7 13:3 15:3 20:6 23:2 24:4 253:0
0 1:14 2:13 3:1 4:7 5:3 6:10 7:1 9:2 10:3 17:1 19:1 21:1 23:1 24:1 25:1 26:2 27:1 28:1 38:1 40:1 69:1 70:1 71:1 72:2 253:0
0 1:9 2:10 3:3 7:2 8:1 14:2 15:1 62:1 63:2 64:2 65:1 67:2 68:1 84:1 85:1 86:2 92:2 253:0
0 1:10 2:9 3:3 4:10 5:4 6:5 7:5 8:2 9:5 10:11 11:4 23:2 24:2 25:1 28:2 36:2 37:2 94:3 95:1 253:0
0 1:12 2:12 4:2 6:4 12:2 13:1 14:6 15:5 16:2 253:0
0 4:28 5:2 9:2 10:42 11:1 15:2 20:4 23:1 24:1 28:1 62:1 63:2 64:2 65:1 84:1 85:1 86:2 107:1 253:0
0 1:12 2:12 4:9 5:5 6:6 9:5 10:6 11:4 23:1 24:1 26:2 27:1 28:1 40:1 72:2 88:1 89:1 114:2 253:0
0 1:6 2:6 4:14 5:3 6:4 9:3 10:19 11:1 12:2 13:1 23:3 24:3 28:3 34:3 88:1 112:3 113:3 114:3 253:0
0 1:12 2:12 4:6 5:3 6:6 9:5 11:4 12:4 13:2 15:2 16:1 20:2 23:2 24:2 28:2 29:2 31:1 33:4 34:2 41:1 54:1 124:1 173:1 253:0
0 1:6 2:6 4:3 5:2 6:2 9:1 10:2 253:0
0 1:12 2:12 4:4 5:1 6:4 9:6 10:1 11:4 14:2 15:4 16:2 20:3 22:2 23:3 24:3 28:1 29:2 35:1 39:2 40:1 253:0
0 1:6 2:6 4:6 5:1 6:4 9:1 10:3 12:2 13:1 15:1 20:1 23:1 24:1 28:1 34:3 40:1 54:1 72:2 88:1 89:1 112:3 113:3 114:1 253:0
0 1:9 2:7 3:3 4:4 5:2 6:3 7:6 8:3 9:6 11:4 15:2 16:1 20:2 25:2 29:4 36:3 37:1 42:1 43:1 44:2 45:1 102:1 142:1 253:0
0 1:6 2:6 4:9 5:5 6:4 9:4 10:8 11:3 12:2 13:1 14:2 15:3 16:1 20:2 22:1 23:2 24:3 29:2 33:2 34:1 41:1 253:0
0 1:6 2:6 4:3 5:3 6:2 9:7 10:2 11:5 23:1 28:2 29:4 35:1 253:0
0 1:14 2:15 3:3 4:4 5:2 6:5 7:2 8:1 9:2 10:1 14:2 15:2 16:1 23:2 24:2 25:1 26:2 27:1 28:2 66:2 74:1 97:1 253:0
0 1:6 2:6 4:19 5:4 6:4 9:4 10:24 11:2 15:1 20:1 23:1 24:1 26:2 27:1 28:1 253:0
0 1:3 2:2 3:2 4:4 5:2 7:2 9:5 10:1 11:3 15:3 16:1 20:3 22:1 23:1 28:1 29:2 32:1 36:2 88:1 94:2 95:1 114:2 253:0
0 1:10 2:9 3:2 4:8 5:3 6:4 7:2 8:1 9:3 10:6 11:1 14:3 15:4 16:2 20:2 23:1 24:1 28:1 33:2 34:1 103:1 253:0
0 1:10 2:8 3:5 4:5 5:4 6:4 7:5 8:2 9:5 10:3 11:3 23:1 24:1 28:1 29:2 33:4 34:3 36:2 37:1 94:3 95:1 112:2 253:0
0 1:12 2:12 4:3 5:2 6:2 9:6 10:1 11:6 12:3 13:1 15:1 20:1 23:2 24:2 28:2 29:4 54:1 253:0
0 1:6 2:6 4:2 5:1 6:2 9:2 10:1 15:2 16:1 20:2 23:1 24:1 28:1 32:1 38:1 39:1 40:1 141:1 253:0
0 1:1 3:1 4:8 5:6 6:1 7:2 8:1 9:6 10:3 11:4 12:4 13:2 15:3 20:3 22:2 23:4 24:4 25:1 28:2 36:1 40:1 41:1 42:1 43:1 44:2 45:1 62:2 72:2 73:1 74:1 75:1 93:1 100:1 107:2 142:1 253:0
0 1:15 2:16 3:3 4:2 6:5 7:2 8:1 14:2 15:2 20:1 22:1 23:1 24:1 25:1 253:0
0 1:6 2:6 4:8 5:3 6:4 9:5 10:4 11:3 15:4 16:2 20:7 23:1 24:1 28:1 29:2 34:3 38:1 39:1 40:1 55:1 62:2 74:1 92:2 93:1 97:1 100:1 112:3 113:3 115:1 116:1 117:1 149:1 253:0
0 1:15 2:17 3:2 4:10 5:3 6:7 7:2 8:1 9:4 10:7 11:3 15:1 20:2 23:1 24:1 25:1 28:1 29:2 38:1 39:1 40:1 253:0
0 1:4 2:3 3:2 4:3 5:1 6:5 7:2 8:1 9:1 14:2 15:2 20:1 25:1 253:0
0 4:21 10:34 15:3 16:1 20:5 22:1 23:1 24:1 253:0
0 1:6 2:6 4:7 5:2 6:2 9:3 10:9 11:1 23:2 24:2 28:2 29:2 253:0
0 4:2 10:1 15:3 20:4 74:6 75:3 116:3 117:6 159:3 253:0
0 4:3 5:6 9:6 11:3 77:6 78:3 79:3 130:1 131:3 253:0
0 1:7 2:6 3:1 4:7 5:8 6:3 7:2 8:1 9:7 10:2 11:5 14:6 15:5 16:2 23:2 24:2 25:1 28:2 36:1 42:1 43:1 44:2 45:1 142:1 253:0
0 1:6 2:6 4:10 5:3 6:2 9:3 10:8 11:3 15:4 16:2 20:4 22:1 23:1 24:1 253:0
0 4:27 10:41 12:3 13:1 15:2 20:5 23:3 24:5 62:2 93:1 107:2 109:1 253:0
0 1:6 2:6 4:14 5:2 6:4 9:2 10:8 11:1 12:8 13:3 15:6 16:3 20:8 22:3 23:3 24:3 41:2 253:0
0 1:1 3:2 4:1 5:1 6:1 7:4 8:2 9:7 11:6 23:2 24:1 25:1 28:3 29:1 35:1 36:1 37:1 66:2 253:0
0 1:14 2:15 3:3 4:7 5:3 6:4 7:2 8:1 9:3 10:5 11:3 62:2 63:2 64:4 65:1 92:2 93:1 107:1 253:0
0 4:17 5:7 9:7 10:17 11:6 35:1 253:0
0 1:12 2:12 4:9 6:6 10:6 14:2 15:8 16:2 20:12 26:2 27:1 253:0
0 1:3 2:2 4:4 5:3 6:1 9:4 10:1 11:3 12:2 13:1 38:1 39:1 40:1 42:2 43:1 44:2 72:1 102:1 253:0
0 4:14 5:6 9:5 10:13 11:4 15:5 16:1 20:9 23:1 24:1 27:1 28:1 62:2 76:2 93:1 107:1 108:1 253:0
0 1:8 2:9 3:3 4:3 5:2 6:2 7:2 8:1 9:1 10:2 15:1 20:1 22:1 23:1 24:1 253:0
0 1:4 2:3 3:2 4:5 5:2 6:2 7:2 8:1 9:2 10:3 15:5 16:1 20:8 23:1 24:1 28:1 32:1 66:2 253:0
0 9:2 35:1 39:2 40:1 253:0
0 1:12 2:12 4:9 5:4 6:8 9:4 10:5 11:3 15:2 16:1 20:2 23:2 24:2 28:2 33:2 34:1 40:1 72:2 88:1 89:1 114:1 253:0
0 1:6 2:6 4:10 5:8 6:2 9:6 10:7 11:4 15:2 16:1 20:4 23:2 24:2 28:2 33:6 34:3 253:0
0 4:19 10:27 12:5 13:2 15:5 16:1 20:7 22:1 23:1 24:1 253:0
0 1:6 2:3 3:6 4:3 5:2 6:1 7:10 8:4 9:4 10:1 11:2 25:3 26:2 27:1 29:2 33:2 34:1 36:4 37:2 94:2 95:1 253:0
0 1:11 2:14 4:5 6:2 7:4 8:1 9:1 10:5 15:1 20:1 22:1 23:1 24:1 29:2 31:1 37:2 62:2 66:2 93:1 94:2 95:1 107:1 110:2 165:2 253:0
0 1:1 3:2 4:5 5:2 6:1 7:4 8:2 9:2 10:3 14:1 15:6 16:1 20:8 23:1 24:1 25:1 28:1 32:1 37:1 66:2 103:1 253:0
0 4:23 10:34 12:5 13:2 15:2 16:1 20:4 22:1 23:2 24:3 253:0
0 4:10 5:1 9:8 10:8 11:5 15:6 16:2 20:7 22:1 23:2 28:3 32:2 35:3 38:1 39:2 40:1 253:0
0 1:12 2:12 4:11 5:1 6:4 9:2 10:9 11:1 14:2 15:5 16:2 20:4 29:2 58:2 59:1 60:1 61:2 62:1 63:2 64:2 65:1 92:2 253:0
0 1:6 2:6 4:10 5:2 6:2 9:2 10:10 11:1 14:2 15:7 16:3 20:8 33:2 34:1 253:0
0 1:12 2:12 4:5 6:6 10:4 15:1 20:1 22:1 23:2 24:3 253:0
0 1:12 2:12 4:8 6:8 10:7 14:4 15:3 16:1 20:3 33:2 34:6 90:1 91:1 112:10 113:2 253:0
0 1:6 2:6 4:8 5:5 6:2 7:4 8:1 9:4 10:7 11:3 12:2 13:1 15:1 20:3 33:4 34:2 37:2 66:1 94:2 95:1 96:1 253:0
0 1:6 2:6 4:2 5:2 6:2 9:5 11:2 26:2 27:1 29:2 35:1 38:1 39:2 40:1 253:0
0 1:10 2:9 3:6 4:4 6:3 7:6 8:3 10:1 14:2 15:4 16:2 20:2 25:1 37:1 62:2 63:1 64:2 93:1 107:1 110:2 253:0
0 1:4 2:3 3:2 4:4 5:1 6:3 7:2 8:1 9:1 10:2 25:1 98:1 99:1 152:1 253:0
0 1:1 3:2 4:18 5:3 6:1 7:4 8:2 9:6 10:22 11:6 15:1 20:1 22:1 23:3 24:2 25:3 28:3 29:1 35:1 36:1 37:1 253:0
0 4:8 5:5 9:3 10:9 11:3 15:3 16:1 20:2 23:1 24:2 253:0
0 1:6 2:6 4:8 5:3 6:2 9:2 10:3 11:1 14:2 15:7 16:3 20:8 253:0
0 1:8 2:7 3:2 4:10 5:7 6:2 7:4 8:2 9:11 10:6 11:10 12:3 13:1 23:1 24:1 28:1 29:5 36:3 37:1 90:1 91:1 253:0
0 4:4 5:1 9:2 10:2 11:1 15:2 16:1 20:1 22:1 23:1 28:1 32:1 68:1 118:1 119:1 204:1 253:0
0 1:7 2:6 3:10 4:3 5:1 7:8 8:4 9:2 10:3 29:1 36:1 37:1 66:2 253:0
0 4:2 5:1 9:4 10:1 11:2 12:2 13:1 23:2 24:1 28:3 35:1 41:1 118:1 119:1 253:0
0 1:13 2:12 3:6 4:2 7:4 8:2 10:1 14:5 15:5 16:2 20:3 22:1 23:1 24:1 26:2 27:1 103:1 253:0
0 4:11 5:9 9:8 10:10 11:6 12:6 13:2 15:4 16:2 20:3 22:1 23:3 24:4 28:1 32:2 41:2 253:0
0 1:13 2:12 3:6 4:5 5:2 6:3 7:6 8:2 9:4 10:2 11:1 23:1 24:2 25:3 29:3 36:1 37:1 66:2 69:2 70:2 90:1 91:1 197:1 253:0
0 4:24 10:34 12:9 13:3 15:5 16:1 20:9 22:1 23:2 24:3 253:0
0 1:12 2:12 4:6 5:3 6:4 9:4 10:5 11:6 253:0
0 1:15 2:14 3:10 4:3 5:2 6:4 7:12 8:6 9:2 10:1 11:1 25:2 29:1 33:2 34:1 36:1 37:3 253:0
0 1:12 2:12 4:4 5:2 6:4 9:4 10:1 11:1 14:2 15:3 20:2 22:2 23:3 24:3 28:1 29:4 127:2 128:1 253:0
0 1:10 2:9 3:6 4:8 6:5 7:6 8:3 10:4 14:2 15:6 16:3 20:7 25:1 37:1 55:1 62:2 63:1 64:2 93:1 107:1 110:2 253:0
0 4:10 5:6 9:6 10:10 11:4 15:3 16:1 20:3 22:1 23:3 24:2 28:3 35:1 63:2 65:1 74:1 83:1 84:2 86:4 97:2 137:1 172:1 253:0
0 4:6 5:2 9:1 10:7 12:2 13:1 15:1 20:1 22:1 23:1 24:1 34:2 113:1 179:2 253:0
0 1:12 2:12 4:8 5:2 6:4 9:2 10:5 11:1 14:2 15:3 16:1 20:3 23:1 24:2 253:0
0 1:2 2:1 3:2 4:11 5:6 6:2 7:4 8:2 9:5 10:11 11:2 15:1 20:2 23:1 24:1 28:1 29:1 36:3 37:1 253:0
0 4:7 5:6 9:6 10:4 11:2 253:0
0 1:5 2:5 3:4 4:11 5:9 6:2 7:4 8:1 9:8 10:6 11:5 15:4 16:2 20:3 22:1 23:2 24:1 25:2 28:2 32:1 37:1 66:1 94:2 95:1 96:1 253:0
0 1:6 2:6 9:2 26:2 27:1 29:4 74:2 97:2 115:2 116:2 117:2 253:0
0 1:12 2:12 4:4 5:2 6:4 9:4 10:2 11:2 12:3 13:1 23:2 24:3 28:1 29:4 41:1 253:0
0 1:10 2:9 3:2 4:9 5:3 6:1 7:2 8:1 9:3 10:10 11:3 14:4 15:4 16:1 20:4 25:1 33:2 34:1 253:0
0 1:6 2:6 4:3 5:1 9:2 10:2 11:1 23:1 24:1 28:1 29:2 40:1 72:2 88:1 89:1 114:2 253:0
0 1:7 2:6 3:2 4:5 5:3 6:3 7:4 8:2 9:7 11:6 12:2 13:1 14:4 15:4 16:2 23:2 24:1 25:3 28:3 29:1 35:1 36:1 37:1 66:2 253:0
0 1:11 2:14 4:8 5:7 6:2 9:5 10:5 11:4 14:2 15:3 16:1 20:2 22:1 23:3 24:3 28:2 62:2 93:1 100:1 107:4 253:0
0 1:13 2:12 3:4 4:6 5:6 6:4 7:4 8:1 9:7 10:2 11:6 17:2 18:1 19:2 23:1 24:1 26:2 27:1 28:1 29:2 36:1 94:2 95:2 96:2 136:1 144:1 153:1 253:0
0 1:6 2:6 4:9 5:5 6:2 9:3 10:8 11:1 15:2 20:3 22:1 23:2 24:2 28:1 253:0
0 1:6 2:6 4:8 5:9 6:2 9:6 10:6 11:4 14:2 15:2 20:1 22:1 23:3 24:3 28:2 62:2 93:1 100:1 107:4 253:0
0 1:6 2:6 4:4 5:4 6:4 9:4 10:1 11:1 23:1 24:1 28:1 88:1 114:2 253:0
0 1:20 2:24 3:3 4:5 5:4 6:2 7:2 8:1 9:3 10:5 11:1 14:8 15:6 16:3 20:1 23:1 24:1 28:1 253:0
0 4:11 5:1 9:1 10:17 15:2 16:1 20:1 22:1 23:1 24:1 253:0
0 1:6 2:6 4:6 5:3 6:2 9:4 10:1 11:3 14:2 15:4 16:2 20:3 22:1 23:1 24:1 29:2 253:0
0 1:2 2:1 3:1 4:3 5:2 6:3 7:1 9:2 10:1 11:1 14:1 15:1 17:1 19:1 21:1 69:1 70:1 71:1 103:1 253:0
0 4:10 10:10 15:1 20:1 22:1 23:1 24:1 253:0
0 4:14 5:1 9:1 10:23 15:1 20:1 22:1 23:1 24:1 253:0
0 1:12 2:12 4:2 5:1 9:6 11:6 15:4 16:2 20:3 22:1 23:1 28:1 29:4 32:1 62:2 92:4 93:1 253:0
0 1:6 2:6 3:8 4:8 5:6 7:8 8:4 9:2 10:10 37:2 58:1 59:1 60:1 61:2 62:1 63:2 64:2 65:1 66:2 107:1 253:0
0 1:12 2:12 4:8 5:8 6:4 9:10 10:2 11:8 15:2 16:1 20:2 23:2 24:1 26:2 27:1 28:3 29:2 35:1 39:1 40:1 72:1 88:1 89:1 114:2 253:0
0 1:6 2:6 4:8 5:3 6:2 9:4 10:6 11:2 12:3 13:1 15:3 20:3 22:1 23:3 24:3 28:2 29:2 54:1 74:1 75:1 97:2 253:0
0 1:13 2:13 3:5 4:3 5:1 6:6 7:4 8:2 9:2 11:1 12:2 13:1 23:2 24:1 28:2 62:2 93:1 100:1 106:1 107:1 109:1 253:0
0 1:12 2:12 4:2 6:4 9:4 11:3 12:2 13:1 23:1 28:2 29:4 35:1 253:0
0 1:12 2:12 3:4 4:2 5:1 6:2 7:4 8:2 9:4 11:1 15:2 20:2 23:1 24:1 26:2 27:1 28:1 29:4 30:2 31:1 33:2 34:1 37:1 66:2 74:1 75:1 97:1 253:0
0 1:6 2:6 3:4 7:4 8:2 9:2 11:1 15:2 16:1 22:1 23:1 28:1 32:1 36:2 37:1 253:0
0 1:9 2:10 3:3 4:5 6:3 7:2 8:1 9:1 10:4 25:1 29:2 253:0
0 1:6 2:6 4:3 5:2 9:7 10:2 11:5 14:2 15:2 16:1 29:2 34:3 35:2 39:4 40:2 111:3 113:3 253:0
0 4:4 5:2 9:5 10:1 11:3 12:3 13:2 15:3 16:1 20:4 23:1 28:2 32:1 34:1 35:1 38:1 39:1 40:1 41:1 72:1 112:1 179:1 253:0
0 1:2 2:1 3:5 7:8 8:4 37:3 62:1 92:1 110:1 253:0
0 1:6 2:6 14:2 15:1 253:0
0 1:12 2:12 4:5 5:2 6:2 9:2 10:2 11:1 14:4 15:6 16:3 20:6 253:0
0 1:12 2:12 4:7 5:1 6:6 9:3 10:6 11:3 12:2 13:1 14:2 15:2 16:1 20:1 23:1 24:1 28:1 41:1 62:2 63:2 64:4 65:1 92:2 93:1 253:0
0 1:14 2:13 3:2 4:7 5:5 6:8 7:2 9:4 10:5 11:1 23:1 24:1 28:1 66:1 74:1 94:2 95:1 96:1 97:1 253:0
0 1:8 2:9 3:3 4:12 5:8 6:4 7:2 8:1 9:11 10:10 11:10 12:1 13:1 23:2 24:1 28:3 35:1 253:0
0 1:15 2:17 3:2 4:5 6:6 7:2 8:1 10:3 15:1 20:1 22:1 23:1 24:1 62:2 90:1 91:1 92:2 93:1 107:3 253:0
0 4:6 5:3 9:2 10:4 11:1 15:6 16:1 20:9 23:1 24:1 28:1 55:1 253:0
0 1:6 2:6 4:4 5:2 6:4 9:1 10:1 14:2 15:2 16:1 20:1 253:0
0 1:8 2:7 3:2 4:7 5:3 6:4 7:4 8:2 9:5 10:5 11:4 15:2 16:1 20:1 22:1 23:1 28:1 32:1 34:1 36:2 37:1 112:2 253:0
0 1:12 2:12 4:11 5:1 6:6 9:3 10:11 11:3 14:2 15:3 16:1 20:4 22:1 23:1 24:1 253:0
0 1:6 2:6 4:8 5:6 6:4 9:6 10:5 11:6 15:1 20:2 23:1 24:1 28:1 33:2 34:1 253:0
0 1:7 2:6 3:1 4:7 6:6 7:2 8:1 10:3 14:2 15:3 16:1 20:2 22:1 23:1 24:1 25:2 42:1 43:1 44:2 45:1 90:1 91:1 102:2 253:0
0 1:12 2:12 4:6 5:7 6:2 9:9 10:1 11:9 15:1 20:1 29:4 34:3 62:2 92:4 93:1 112:3 113:3 253:0
0 1:4 2:2 3:5 4:10 5:10 6:3 7:5 8:2 9:7 10:6 11:5 23:2 24:2 25:1 28:2 37:1 90:1 91:1 94:3 95:1 253:0
0 1:8 2:6 3:4 4:10 5:11 6:1 7:4 8:2 9:11 10:5 11:10 23:1 24:1 25:1 28:1 29:3 36:1 253:0
0 1:8 2:7 3:2 4:10 5:8 6:5 7:4 8:2 9:10 10:3 11:8 15:4 16:2 20:4 23:1 25:3 28:2 29:3 35:1 36:1 37:1 253:0
0 1:6 2:6 4:11 5:3 6:2 9:3 10:10 11:3 15:4 16:2 20:4 22:1 23:1 24:1 253:0
0 1:10 2:9 3:2 4:7 5:3 6:5 7:2 8:1 9:3 10:3 11:3 12:3 13:1 25:1 253:0
0 1:15 2:15 3:4 4:6 5:5 6:3 7:6 8:2 9:5 10:3 11:3 12:1 13:1 14:4 15:2 16:1 23:1 24:1 25:1 28:1 29:1 36:1 37:2 66:1 94:2 95:1 96:1 253:0
0 4:10 5:9 9:9 10:9 11:5 23:3 24:2 28:4 35:1 63:2 65:1 74:1 84:2 86:4 88:1 97:2 114:2 137:1 172:1 253:0
0 1:12 2:12 4:5 5:1 6:6 9:3 10:2 11:3 12:3 13:1 14:2 15:2 16:1 20:1 253:0
0 1:9 2:10 3:3 4:1 6:1 7:2 8:1 14:2 15:1 25:1 26:4 27:2 253:0
0 1:6 2:6 4:5 5:3 6:4 9:2 10:2 11:1 34:3 112:3 113:3 253:0
0 1:16 2:15 3:2 4:10 5:1 6:8 7:2 8:1 9:3 10:13 11:3 14:4 15:8 16:3 20:8 90:1 91:1 103:2 253:0
0 1:12 2:12 4:7 5:6 6:2 9:6 10:4 11:4 14:4 15:6 16:3 20:3 23:1 24:1 26:2 27:1 28:1 29:2 33:2 34:1 253:0
0 1:1 3:2 4:4 5:4 6:1 7:4 8:2 9:10 10:1 11:9 15:2 20:3 23:2 24:1 25:1 28:3 29:1 35:1 36:1 37:1 66:2 253:0
0 1:17 2:20 4:1 5:1 6:2 9:5 11:4 23:2 28:3 29:2 35:1 58:2 59:1 60:1 62:1 100:1 109:1 253:0
0 1:12 2:12 3:4 4:5 5:1 6:7 7:4 8:2 9:1 10:1 15:1 20:1 22:1 23:1 24:1 25:1 34:3 37:1 62:2 63:2 64:4 65:1 66:2 92:2 93:1 112:3 113:3 253:0
0 1:12 2:12 4:6 5:7 6:4 9:6 10:1 11:6 15:3 16:1 20:3 26:2 27:1 253:0
0 1:12 2:12 4:6 5:2 6:4 9:3 10:6 11:1 23:2 24:2 28:2 29:2 74:1 97:1 253:0
0 1:7 2:6 3:2 4:4 5:2 6:4 7:4 8:2 9:4 11:3 15:2 16:1 20:2 22:1 23:2 24:2 25:2 28:1 29:2 37:1 66:2 67:2 68:1 253:0
0 1:6 2:6 4:8 6:2 9:3 10:7 11:3 15:2 16:1 20:2 22:1 23:1 24:1 29:2 253:0
0 1:8 2:7 3:5 4:8 5:6 6:2 7:8 8:4 9:7 10:3 11:6 15:2 16:1 20:2 25:4 26:2 27:1 29:1 36:1 37:3 66:2 253:0
0 1:8 2:7 3:1 4:9 5:7 6:6 7:1 9:5 10:5 11:4 15:1 17:1 19:1 20:1 21:1 22:1 23:3 24:3 25:1 28:2 62:2 69:1 70:1 71:1 93:1 100:1 107:4 253:0
0 4:8 5:6 9:2 10:9 11:1 15:1 20:2 74:1 97:2 253:0
0 4:4 10:3 15:5 20:8 253:0
0 1:16 2:16 3:9 4:3 6:3 7:8 8:3 9:2 10:1 23:1 24:2 25:3 29:3 36:1 37:1 66:1 94:2 95:1 96:1 253:0
0 1:12 2:12 4:2 5:1 6:2 9:2 12:2 13:1 23:1 24:1 28:1 29:2 58:1 59:1 60:1 61:2 62:1 63:2 64:2 65:1 74:1 92:2 97:1 253:0
0 1:9 2:8 4:4 5:3 6:4 9:8 11:5 13:1 14:4 15:4 16:2 17:2 18:1 19:2 21:2 35:1 41:3 55:1 62:2 74:1 93:1 97:1 107:2 115:1 116:1 117:1 253:0
0 1:2 2:1 3:2 4:6 5:4 6:1 7:4 8:2 9:5 10:5 11:3 25:1 29:1 36:3 37:1 253:0
0 1:12 2:12 4:15 5:8 6:4 9:6 10:18 11:6 15:1 20:3 23:1 24:1 28:1 33:4 34:2 253:0
0 1:6 2:6 4:12 5:2 6:6 9:4 10:7 11:3 12:2 13:1 15:6 16:3 20:7 23:1 28:2 35:1 38:1 40:1 41:1 72:1 118:2 119:1 141:1 253:0
0 1:15 2:14 3:2 4:4 5:1 6:5 7:2 8:1 9:4 10:1 11:3 12:2 13:1 14:4 15:2 16:1 23:1 24:1 25:1 28:1 29:2 33:4 34:2 41:1 58:1 59:1 60:1 61:2 62:1 63:2 64:2 65:1 107:1 253:0
0 1:6 2:6 4:1 6:2 9:3 11:1 29:2 34:3 35:1 58:1 59:2 60:2 61:4 62:2 63:4 64:4 65:2 92:4 112:3 113:3 253:0
0 1:15 2:17 3:2 4:8 5:6 6:2 7:2 8:1 9:8 10:4 11:7 14:1 15:2 16:1 20:1 23:1 24:1 28:1 29:3 36:1 103:1 253:0
0 1:8 2:5 3:6 4:9 5:5 6:4 7:8 8:3 9:11 10:6 11:8 25:2 29:5 33:2 34:1 36:5 37:1 66:1 94:2 95:1 96:1 253:0
0 1:1 3:2 4:7 5:3 6:1 7:4 8:2 9:6 10:5 11:1 15:5 16:2 20:5 22:1 23:2 24:2 25:1 28:1 29:1 32:1 35:1 36:1 37:1 38:1 39:2 40:1 66:2 253:0
0 1:6 2:6 4:25 5:4 6:4 9:3 10:39 11:3 14:4 15:6 16:2 20:8 253:0
0 1:12 2:12 4:6 5:5 6:4 9:8 10:2 11:7 12:3 13:1 58:2 59:1 60:1 61:2 62:3 63:2 64:2 65:1 92:6 93:1 253:0
0 1:12 2:12 4:8 5:1 6:8 9:3 10:8 11:3 12:3 13:1 253:0
0 1:9 2:10 3:3 4:13 5:6 6:6 7:5 8:2 9:5 10:7 11:4 15:2 16:1 19:1 20:2 21:1 25:3 29:1 33:2 34:1 36:1 37:1 69:1 70:1 71:1 136:1 253:0
0 1:12 2:12 4:5 6:4 10:1 12:6 13:3 14:8 15:9 16:4 20:1 23:1 24:2 54:1 253:0
0 4:2 10:1 15:2 16:1 20:2 34:7 111:1 112:6 113:6 253:0
0 1:4 2:3 3:2 4:7 5:6 7:2 8:1 9:5 10:2 11:4 12:3 13:1 15:3 16:1 20:3 22:2 23:4 24:4 28:2 41:1 62:4 92:2 93:2 100:1 107:3 253:0
0 1:21 2:22 3:3 4:7 5:6 6:4 7:2 8:1 9:6 10:4 11:6 14:2 15:3 16:1 20:3 23:1 24:1 28:1 253:0
0 1:2 2:1 3:5 4:4 5:1 7:8 8:4 9:2 10:3 15:4 16:1 20:6 27:1 29:1 32:1 34:1 36:1 37:3 66:2 112:2 132:2 253:0
0 1:6 2:6 4:3 5:3 6:2 9:3 10:1 11:1 14:4 15:5 16:2 20:2 23:1 24:1 28:1 253:0
0 4:24 10:35 12:5 13:2 15:4 16:1 20:7 22:1 23:3 24:5 34:1 112:3 253:0
0 1:6 2:6 4:5 5:2 6:2 9:3 10:7 11:3 23:2 24:2 28:2 253:0
0 1:16 2:22 4:4 5:4 6:4 9:8 11:2 35:2 38:2 39:4 40:4 72:2 88:2 89:2 114:2 253:0
0 1:14 2:13 3:1 4:3 6:8 7:1 17:1 19:1 21:1 25:1 59:1 60:1 61:2 62:1 63:2 64:2 65:1 69:1 70:1 71:1 92:2 253:0
0 1:7 2:6 3:2 4:16 5:10 6:4 7:4 8:2 9:7 10:16 11:3 23:1 24:1 28:1 29:1 33:4 34:2 36:1 37:1 66:2 253:0
0 1:14 2:13 3:2 4:5 5:2 6:5 7:4 8:2 9:5 10:1 11:4 12:2 13:1 14:2 15:2 16:1 20:1 25:1 29:2 36:2 37:1 253:0
0 4:5 5:6 9:6 11:6 15:4 20:4 22:4 23:4 24:4 253:0
0 4:3 10:2 15:4 20:6 62:2 63:4 64:4 65:2 83:2 84:2 85:2 86:4 253:0
0 1:14 2:15 3:3 4:4 5:2 6:5 7:2 9:3 10:1 11:1 14:4 15:4 16:2 23:1 24:1 25:1 28:1 29:2 94:2 95:1 253:0
0 1:6 2:6 4:3 5:1 9:2 10:1 12:3 13:1 23:1 24:1 28:1 29:2 58:1 59:1 60:1 61:2 62:1 63:2 64:2 65:1 92:2 253:0
0 1:12 2:12 4:10 5:3 6:8 7:3 8:1 9:3 10:7 11:3 15:1 19:1 20:1 21:1 22:1 23:1 24:1 25:3 33:2 34:1 37:1 69:1 70:1 71:1 136:1 253:0
0 1:10 2:9 3:2 4:11 5:5 6:4 7:2 8:1 9:5 10:8 11:4 12:2 13:1 23:2 24:2 28:2 253:0
0 1:7 2:8 3:1 4:13 5:3 7:1 9:3 10:12 11:3 14:3 15:9 16:4 17:2 19:1 20:10 69:1 70:1 71:1 103:1 253:0
0 1:7 2:6 3:1 4:16 5:11 6:5 7:2 8:1 9:8 10:12 11:7 15:2 16:1 17:1 18:1 19:2 20:2 21:1 23:3 24:3 25:2 28:3 136:1 253:0
0 1:6 2:6 4:8 6:4 10:8 12:3 13:1 14:2 15:3 16:1 20:3 22:1 23:1 24:1 26:2 27:1 34:3 112:3 113:3 253:0
0 4:25 10:35 12:5 13:2 15:6 16:2 20:10 23:2 24:4 55:1 253:0
0 1:18 2:18 4:10 5:6 6:4 9:4 10:12 11:3 14:4 15:3 16:1 20:2 23:1 24:1 28:1 253:0
0 1:12 2:12 4:8 5:2 6:6 9:3 10:8 11:3 14:2 15:3 16:1 20:1 22:1 23:1 24:1 253:0
0 1:12 2:12 3:4 7:4 8:2 9:2 11:1 15:2 16:1 22:1 23:1 28:1 32:1 36:2 37:1 62:2 63:1 64:2 92:4 93:1 253:0
0 1:12 2:12 4:8 5:5 6:2 9:8 10:6 11:7 23:2 24:2 28:2 29:4 33:2 34:1 35:1 253:0
0 23:2 235:1 253:0
0 1:6 2:6 4:2 6:2 9:3 11:1 12:1 13:1 14:2 15:2 16:1 20:1 23:1 28:2 35:1 38:1 40:1 41:1 54:1 72:1 253:0
0 1:9 2:10 3:3 4:3 6:1 7:2 8:1 9:1 10:3 15:1 20:3 25:1 29:2 253:0
0 1:16 2:16 3:4 4:9 5:5 6:7 7:4 8:2 9:6 10:4 11:6 12:4 13:1 15:1 20:1 23:1 24:1 25:1 28:1 42:1 43:1 44:2 45:1 253:0
0 1:6 2:6 4:6 5:3 6:2 9:3 10:5 11:3 33:2 34:1 62:2 63:2 64:4 65:1 92:2 93:1 253:0
0 1:16 2:15 3:8 4:3 6:5 7:9 8:3 10:1 25:3 34:2 37:2 94:5 95:2 112:4 113:1 253:0
0 4:8 10:7 15:2 20:2 22:2 23:2 24:2 253:0
0 1:14 2:15 4:4 5:4 6:5 9:6 11:4 14:2 15:2 16:1 17:3 18:1 19:2 20:1 21:1 23:2 24:2 28:2 74:1 97:1 253:0
0 1:6 2:6 4:4 5:3 6:2 9:1 10:4 253:0
0 1:7 2:6 3:2 4:6 5:6 6:2 7:4 8:2 9:7 10:2 11:4 14:2 15:4 16:2 20:2 22:1 23:2 24:1 25:2 28:2 29:3 32:1 34:2 36:1 37:1 66:2 112:2 113:1 253:0
0 1:8 2:9 3:3 4:2 5:1 6:2 7:2 8:1 9:3 10:1 11:3 253:0
0 1:6 2:6 4:2 5:2 6:2 9:3 11:3 118:1 119:1 253:0
0 1:6 2:6 3:4 4:14 5:7 6:2 7:4 8:2 9:8 10:13 11:7 15:2 16:1 22:1 23:2 24:1 25:2 28:2 32:1 37:1 253:0
0 1:6 2:3 3:6 7:8 8:2 9:3 29:2 30:2 31:1 36:4 37:1 66:2 94:4 95:2 96:2 253:0
0 1:6 2:6 4:7 5:6 6:2 9:6 10:3 11:4 14:2 15:2 16:1 23:1 24:1 28:1 29:2 62:2 63:2 64:4 65:1 92:2 93:1 107:1 253:0
0 1:10 2:9 3:2 4:4 5:1 6:5 7:4 8:1 9:4 10:1 11:3 15:3 16:1 20:3 22:1 23:1 25:3 28:1 29:2 32:1 33:2 34:1 37:1 94:2 95:3 96:2 144:2 253:0
0 1:4 2:4 3:4 4:7 5:4 7:9 8:4 9:8 10:9 11:7 15:2 16:1 23:1 28:2 29:1 35:1 36:2 37:3 44:1 45:1 103:2 142:1 174:1 175:1 176:1 253:0
0 1:6 2:6 4:5 5:1 6:2 9:2 10:4 11:1 12:2 13:1 15:1 20:1 22:1 23:1 24:1 29:2 253:0
0 1:7 2:6 3:2 4:6 5:5 6:3 7:4 8:2 9:10 10:1 11:9 15:1 20:1 23:2 24:1 25:3 28:3 29:1 35:1 36:1 37:1 66:2 253:0
0 1:7 2:6 3:2 4:6 5:2 6:5 7:4 8:2 9:1 10:4 25:1 37:1 66:2 90:1 91:1 253:0
0 1:8 2:7 3:5 4:9 5:3 7:8 8:4 9:3 10:8 11:1 15:5 16:1 20:9 29:1 32:1 33:2 34:1 36:1 37:3 62:2 66:2 92:2 93:1 107:1 253:0
0 1:13 2:16 3:4 4:3 6:2 7:2 8:1 10:3 15:1 20:1 22:1 23:1 24:1 26:2 27:1 253:0
0 1:8 2:7 3:2 4:11 5:4 6:4 7:2 9:3 10:12 11:1 23:1 24:1 25:2 28:1 29:2 33:4 34:2 66:1 94:2 95:1 96:1 253:0
0 1:13 2:10 3:5 4:7 5:3 6:8 7:5 8:2 9:3 10:3 11:3 14:2 15:2 16:1 20:1 37:1 42:2 43:1 44:2 94:3 95:1 253:0
0 1:6 2:6 4:3 5:2 6:2 9:1 10:2 14:4 15:3 20:2 253:0
0 1:6 2:6 3:2 4:7 5:6 6:1 7:2 8:1 9:5 10:6 11:4 17:3 18:1 19:2 23:1 24:1 25:1 28:1 253:0
0 4:23 10:33 12:5 13:2 15:2 16:1 20:4 22:1 23:3 24:5 27:1 76:1 133:1 253:0
0 1:13 2:14 3:3 4:2 5:1 7:4 8:2 9:4 10:1 11:2 14:7 15:6 16:3 23:1 26:2 27:1 28:2 29:2 35:1 37:1 103:1 253:0
0 1:6 2:6 3:2 4:3 5:3 7:2 8:1 9:6 11:6 14:2 15:2 16:1 20:1 36:1 42:2 43:1 44:2 45:1 142:1 253:0
0 1:14 2:15 3:3 4:9 5:4 6:6 7:2 8:1 9:7 10:7 11:6 14:2 15:2 16:1 23:3 24:4 28:2 33:2 34:1 66:2 253:0
0 1:12 2:12 4:1 6:2 14:4 15:3 16:1 20:1 253:0
0 4:9 5:2 9:2 10:12 11:1 23:2 24:3 28:1 253:0
0 1:12 2:12 4:4 5:1 6:4 9:2 10:4 11:1 33:4 34:2 253:0
0 1:6 2:6 4:4 5:3 6:2 9:1 10:4 26:2 27:1 253:0
0 1:12 2:12 4:8 5:7 6:2 9:9 10:3 11:9 15:1 20:1 23:1 24:2 29:4 62:2 92:4 93:1 253:0
0 1:8 2:9 3:3 4:7 5:2 6:2 7:2 8:1 9:2 10:7 11:1 253:0
0 4:8 5:2 9:4 10:11 11:2 12:1 13:1 23:3 24:2 28:4 35:1 253:0
0 1:2 2:1 3:2 4:2 5:2 7:4 8:2 9:2 10:1 11:1 36:2 37:1 253:0
0 1:6 2:6 4:4 5:2 6:4 9:2 10:1 11:1 15:2 16:1 20:3 34:3 112:3 113:3 253:0
0 1:12 2:12 3:2 4:7 5:8 6:2 7:2 8:1 9:10 10:2 11:9 12:3 13:1 23:2 24:2 28:2 29:3 33:2 34:1 36:1 42:3 43:1 44:2 253:0
0 1:14 2:15 3:3 4:6 5:3 6:3 7:2 8:1 9:3 10:4 11:1 15:1 20:1 22:1 23:1 24:1 25:1 33:2 34:1 58:2 59:1 60:1 61:2 62:1 63:2 64:2 65:1 66:2 92:2 253:0
0 1:7 2:6 3:1 4:3 6:3 7:2 8:1 10:1 15:1 20:1 22:1 23:1 24:1 25:2 26:2 27:1 42:1 43:1 44:2 45:1 102:1 253:0
0 1:13 2:14 3:3 4:8 5:2 6:6 7:2 9:4 10:9 11:2 23:1 28:2 29:2 35:1 94:2 95:1 253:0
0 1:8 2:6 3:4 4:1 6:3 7:4 8:2 9:2 25:1 26:6 27:3 29:2 36:2 253:0
0 1:14 2:13 3:1 4:4 6:8 7:1 10:1 14:4 15:5 16:2 17:1 19:1 20:1 21:1 22:1 23:1 24:1 25:1 69:1 70:1 71:1 253:0
0 1:18 2:18 3:2 4:5 5:1 6:9 7:2 8:1 9:1 10:1 14:2 15:3 16:1 17:3 18:1 19:2 20:2 22:1 23:1 24:1 25:1 33:2 34:1 253:0
0 4:1 5:1 9:1 15:1 20:1 50:1 51:3 52:3 53:3 82:1 253:0
0 1:16 2:15 3:2 7:2 8:1 9:3 11:1 14:4 15:3 16:1 29:5 36:1 58:1 59:1 60:1 61:2 62:1 63:2 64:2 65:1 92:2 253:0
0 1:3 2:1 3:4 4:3 5:4 7:6 8:2 9:7 11:4 12:1 13:1 15:2 16:1 20:2 23:1 24:1 28:1 29:2 36:2 37:1 41:2 66:1 88:1 94:2 95:2 96:1 114:3 144:1 253:0
0 4:8 5:4 9:5 10:5 11:3 12:5 13:2 15:1 20:2 23:2 24:2 28:2 35:1 40:1 41:1 72:2 88:1 89:1 114:1 253:0
0 1:6 2:6 4:8 5:4 6:2 9:4 10:10 11:3 23:1 24:1 28:1 253:0
0 1:10 2:9 3:6 4:3 6:5 7:6 8:3 14:4 15:4 16:2 25:1 37:1 62:2 63:1 64:2 93:1 107:1 110:2 253:0
0 4:11 5:10 9:7 10:10 11:6 15:1 20:2 23:3 24:3 28:3 253:0
0 1:9 2:7 3:7 4:10 5:3 6:5 7:8 8:4 9:4 10:8 11:1 15:2 20:2 22:2 23:3 24:3 25:1 28:1 29:1 36:3 37:2 118:1 119:1 253:0
0 1:12 2:12 4:7 5:4 6:2 9:8 10:4 11:7 12:2 13:1 23:2 24:2 28:2 29:4 33:2 34:1 35:1 41:1 253:0
0 1:12 2:12 4:10 5:7 6:4 9:9 10:8 11:9 23:1 24:2 29:4 33:2 34:1 253:0
0 1:12 2:12 4:9 5:3 6:4 9:3 10:11 11:3 15:1 20:3 253:0
0 1:12 2:10 3:3 4:6 5:3 6:8 7:3 8:1 9:3 11:3 14:1 15:2 16:1 17:1 19:1 20:1 21:1 23:1 24:1 25:1 28:1 33:2 34:1 62:2 63:2 64:4 65:1 69:1 70:1 71:1 93:1 103:1 107:2 253:0
0 1:6 2:6 4:4 5:2 6:2 9:2 10:3 15:1 20:1 22:1 23:2 24:3 26:2 27:1 29:2 253:0
0 1:6 2:6 4:9 5:6 6:4 9:7 10:3 11:5 12:3 13:1 14:2 15:4 16:2 20:3 23:1 24:1 28:1 29:2 41:1 253:0
0 1:12 2:12 4:6 5:2 6:4 9:2 10:5 11:1 62:2 92:4 93:1 253:0
0 1:8 2:7 3:2 4:7 5:3 6:6 7:2 9:4 10:2 11:2 15:2 16:1 20:3 23:1 24:1 25:2 28:1 29:2 94:2 95:1 253:0
0 1:15 2:14 3:4 4:2 5:1 6:3 7:4 8:1 9:4 11:2 14:1 15:2 16:1 17:3 18:1 19:2 20:1 23:1 24:1 25:1 26:2 27:1 28:1 29:3 36:1 94:2 95:1 103:1 253:0
0 4:23 10:35 12:5 13:2 15:3 20:6 23:2 24:4 34:1 50:1 51:3 52:3 53:3 82:1 112:3 253:0
0 1:6 2:6 4:4 5:4 9:5 11:4 14:2 15:2 16:1 20:1 22:1 23:2 24:2 28:1 29:2 253:0
0 1:6 2:6 4:13 5:3 6:2 9:3 10:11 11:3 15:3 16:1 20:5 22:1 23:1 24:1 118:2 119:1 253:0
0 1:16 2:15 3:2 4:5 5:1 6:5 7:2 8:1 9:3 10:2 11:3 12:5 13:2 23:1 24:1 25:1 28:1 29:2 41:1 90:1 91:1 253:0
0 1:8 2:7 3:2 4:10 6:6 7:4 8:2 9:2 10:7 11:1 12:2 13:1 15:3 20:5 22:1 23:1 24:1 25:2 33:2 34:1 36:2 37:1 58:2 59:1 60:1 61:2 62:1 63:2 64:2 65:1 253:0
0 1:1 3:1 4:9 5:5 6:1 7:5 8:2 9:5 10:4 11:4 15:2 16:1 19:1 20:3 21:1 23:1 24:1 25:3 28:1 33:1 34:1 36:1 37:1 42:1 43:1 44:2 45:1 69:1 70:1 71:1 102:1 136:1 142:1 200:1 253:0
0 1:18 2:16 3:4 4:6 5:6 6:9 7:6 8:3 9:10 11:8 23:1 24:1 25:1 28:1 29:4 36:2 37:1 253:0
0 1:1 3:1 4:9 5:6 6:1 7:2 8:1 9:7 10:4 11:4 12:6 13:2 15:3 16:1 20:2 22:2 23:4 24:3 25:1 28:3 32:1 36:1 41:1 42:1 43:1 44:2 45:1 62:2 93:1 100:1 107:2 142:1 253:0
0 1:8 2:9 3:3 4:9 6:5 7:2 8:1 10:7 15:3 16:1 20:5 22:1 23:1 24:1 25:1 253:0
0 1:14 2:13 3:2 4:6 6:6 7:4 8:2 10:4 15:5 16:2 20:6 22:1 23:1 24:1 25:2 37:1 103:2 253:0
0 1:12 2:12 4:5 5:2 6:4 9:2 10:3 14:2 15:1 23:1 24:1 26:2 27:1 28:1 33:2 34:1 38:1 40:1 72:2 253:0
0 1:18 2:18 4:5 5:3 6:8 9:4 10:1 11:2 15:2 20:3 22:1 23:1 24:1 26:2 27:1 29:2 253:0
0 1:12 2:12 4:4 6:6 10:3 15:1 20:1 22:1 23:1 24:1 33:2 34:1 253:0
0 1:8 2:9 3:3 4:2 5:1 6:2 7:2 8:1 9:1 10:1 14:2 15:1 253:0
0 1:3 2:2 3:2 4:14 6:4 7:2 10:22 25:2 94:2 95:1 253:0
0 1:10 2:9 3:6 4:5 5:3 7:6 8:3 9:7 10:6 11:4 14:4 15:4 16:2 29:3 36:1 37:1 55:1 62:2 66:2 92:2 93:1 110:2 253:0
0 1:6 2:6 4:4 5:3 6:2 9:4 11:3 15:2 16:1 20:2 22:1 23:1 24:1 26:2 27:1 29:2 253:0
0 1:10 2:9 3:2 4:2 5:2 6:2 7:2 8:1 9:5 11:4 12:2 13:1 15:2 16:1 20:1 22:1 23:2 24:1 28:2 29:1 32:1 36:1 41:1 54:1 58:2 59:1 60:1 61:2 62:1 63:2 64:2 65:1 92:2 253:0
0 1:13 2:12 3:2 4:5 5:6 6:5 7:4 8:2 9:7 11:6 23:1 24:1 25:1 26:2 27:1 28:1 29:2 37:1 66:2 90:1 91:1 253:0
0 1:11 2:9 3:5 4:1 6:3 7:5 8:4 25:1 37:1 62:2 63:2 64:4 65:1 92:2 93:1 253:0
0 1:11 2:8 3:6 4:6 5:5 6:6 7:10 8:4 9:7 10:1 11:4 15:2 16:1 20:1 23:1 24:1 25:4 28:1 29:1 33:4 34:2 36:3 37:2 66:3 94:2 95:1 96:1 253:0
0 1:15 2:14 3:2 4:3 6:5 7:2 8:1 9:1 14:2 15:2 16:1 20:1 25:1 29:2 59:1 60:1 61:2 62:1 63:2 64:2 65:1 66:2 92:2 253:0
0 1:15 2:14 4:6 5:2 6:6 9:3 10:6 11:3 14:6 15:6 16:3 17:2 18:1 19:2 20:1 21:2 23:1 24:1 28:1 29:2 34:3 55:1 112:3 113:3 253:0
0 1:6 2:6 4:12 5:3 6:2 9:4 10:11 11:6 15:3 16:1 20:5 22:1 23:1 24:1 253:0
0 1:13 2:12 3:2 4:1 6:3 7:4 8:2 9:1 14:2 15:2 16:1 25:1 26:1 27:1 29:2 33:2 34:1 37:1 59:1 60:1 61:2 62:1 63:2 64:2 65:1 66:2 92:2 132:1 253:0
0 1:15 2:16 3:3 4:4 6:4 7:2 8:1 9:2 10:1 11:1 15:4 16:1 20:5 22:1 23:1 24:1 29:4 34:3 112:3 113:3 253:0
0 1:12 2:12 4:5 5:1 6:4 7:4 8:1 9:2 10:3 14:2 15:2 16:1 20:3 23:1 24:1 25:4 26:2 27:1 28:1 33:6 34:3 37:2 66:2 94:2 95:1 253:0
0 4:7 5:2 9:2 10:8 11:1 15:3 20:4 23:1 24:1 28:1 253:0
0 1:6 2:6 4:10 5:3 6:2 9:4 10:7 11:3 12:1 13:1 14:2 15:2 16:1 20:2 38:1 39:1 40:2 41:2 59:1 60:1 61:2 62:1 63:2 64:2 65:1 72:3 107:1 199:1 253:0
0 1:10 2:6 3:8 4:2 5:2 6:4 7:8 8:4 9:4 11:3 23:1 24:1 28:1 29:2 36:2 74:1 97:1 253:0
0 1:12 2:12 4:8 5:5 6:10 9:10 10:1 11:7 12:2 13:1 14:4 15:4 16:2 23:2 28:4 29:2 35:2 38:1 39:1 40:1 41:1 72:1 253:0
0 1:12 2:12 4:8 5:2 6:4 9:3 10:10 11:3 23:1 24:2 253:0
0 1:10 2:9 3:2 4:9 5:6 6:3 7:2 8:1 9:4 10:9 11:3 23:1 24:1 25:1 28:1 253:0
0 4:19 10:16 12:11 13:5 15:9 16:4 20:15 22:2 23:2 24:2 253:0
0 1:7 2:6 3:6 4:7 5:2 6:6 7:8 8:3 9:4 10:2 11:1 12:3 13:1 14:2 15:2 16:1 23:1 24:1 25:2 28:1 36:2 37:2 62:2 66:1 92:1 93:1 94:2 95:1 96:1 107:1 110:1 253:0
0 1:2 2:1 3:5 4:4 5:1 7:8 8:4 9:2 10:3 15:5 16:1 20:8 29:1 32:1 36:1 37:3 66:2 253:0
0 1:16 2:16 3:5 4:6 5:2 6:8 7:6 8:3 9:4 10:1 11:1 15:2 16:1 20:2 23:1 24:1 25:2 28:1 29:1 36:3 37:1 66:2 253:0
0 1:6 2:6 4:12 5:3 6:4 9:3 10:14 11:3 12:2 13:1 14:4 15:5 16:2 20:5 253:0
0 1:6 2:6 4:4 5:3 6:2 9:1 10:4 14:2 15:2 20:1 22:1 23:1 24:1 253:0
0 1:11 2:6 3:10 4:5 5:2 6:8 7:12 8:6 9:3 11:1 23:1 24:1 25:4 28:1 29:1 34:3 36:1 37:1 66:2 112:3 113:3 253:0
0 1:1 3:2 4:9 5:2 6:1 7:2 9:3 10:6 11:3 12:3 13:1 14:1 15:2 16:1 20:1 25:1 103:1 174:2 176:2 189:1 253:0
0 1:15 2:16 3:3 4:6 5:7 6:3 7:2 8:1 9:11 10:1 11:10 23:1 25:1 28:2 29:4 35:1 253:0
0 1:6 2:6 4:8 5:2 6:2 9:2 10:6 11:1 14:2 15:2 20:1 22:1 23:2 24:2 28:1 253:0
0 1:6 2:6 4:5 6:4 10:3 12:3 13:1 14:2 15:1 23:2 24:4 253:0
0 1:15 2:16 3:3 4:7 5:6 6:2 7:2 8:1 9:7 10:5 11:6 23:1 24:1 28:1 29:2 58:1 59:1 60:1 61:2 62:1 63:2 64:2 65:1 92:2 253:0
0 1:6 2:6 4:8 5:3 6:2 9:3 10:10 11:1 23:1 24:1 26:2 27:1 28:1 29:2 253:0
0 4:7 5:2 9:4 10:9 11:2 12:1 13:1 15:1 20:2 23:3 24:2 28:4 35:1 253:0
0 4:27 10:38 12:3 13:1 15:3 16:1 20:6 22:1 23:3 24:5 253:0
0 1:12 2:12 4:3 5:2 6:4 9:5 10:1 11:3 23:1 24:1 28:1 29:4 33:2 34:1 38:1 40:1 72:2 74:1 97:1 115:1 116:1 117:1 253:0
0 1:11 2:9 3:2 4:9 5:3 6:5 7:4 8:2 9:5 10:2 11:4 12:2 13:1 14:2 15:6 16:3 17:2 18:1 19:2 20:5 21:2 25:1 29:2 36:2 37:1 253:0
0 1:6 2:6 14:4 15:3 16:1 253:0
0 1:8 2:7 3:1 4:3 5:1 6:3 7:1 9:3 11:1 17:1 19:1 23:1 24:1 25:1 28:1 29:3 58:2 59:1 60:1 61:2 62:1 63:2 64:2 65:1 69:1 70:1 71:1 92:2 153:1 253:0
0 1:10 2:9 3:5 4:7 5:6 7:6 8:3 9:4 10:5 11:1 14:3 15:2 16:1 23:1 24:1 25:2 28:1 33:6 34:3 37:2 66:2 103:1 253:0
0 1:8 2:7 3:2 4:6 5:3 6:2 7:4 8:2 9:5 10:3 11:4 12:2 13:1 14:2 15:4 16:2 20:3 23:1 24:1 28:1 29:1 33:4 34:2 36:3 37:1 54:1 253:0
0 1:12 2:12 4:4 5:2 6:8 9:2 12:2 13:1 14:2 15:1 39:2 40:2 72:2 253:0
0 1:15 2:16 3:3 4:8 5:4 6:3 7:2 8:1 9:7 10:6 11:5 15:1 20:3 23:1 25:1 28:2 29:2 35:1 253:0
0 4:14 5:6 9:4 10:13 11:2 15:5 16:1 20:9 23:1 24:1 27:1 28:1 62:2 76:2 93:1 107:1 108:1 253:0
0 1:7 2:6 3:2 4:1 7:4 8:2 9:3 25:2 29:5 36:1 37:1 66:2 74:2 97:2 115:2 116:2 117:2 253:0
0 1:12 2:12 4:5 5:2 6:4 9:2 10:1 11:1 12:5 13:2 14:4 15:2 23:1 24:1 28:1 90:1 91:1 253:0
0 1:9 2:8 4:2 5:1 6:1 9:3 11:3 14:2 15:2 16:1 17:2 18:1 19:2 20:1 21:1 22:1 23:2 24:2 27:2 28:1 29:2 76:2 104:1 253:0
0 1:12 2:12 4:9 5:3 6:4 9:3 10:8 11:3 15:1 20:3 253:0
0 1:12 2:12 4:6 5:2 9:4 10:6 11:2 23:3 24:4 28:2 29:4 88:1 114:4 253:0
0 1:14 2:17 3:4 7:2 8:1 9:2 29:4 253:0
0 1:16 2:15 3:2 4:3 6:8 7:2 8:1 9:2 15:1 20:1 22:1 23:1 24:1 29:4 58:1 59:1 60:1 61:2 62:1 63:2 64:2 65:1 74:1 92:2 97:1 115:1 116:1 117:1 253:0
0 4:5 10:5 15:3 20:5 22:2 23:2 24:2 253:0
0 1:12 2:12 4:9 5:1 6:6 7:4 8:1 9:1 10:6 14:2 15:4 16:1 20:4 22:1 23:1 24:1 25:2 37:2 66:1 94:2 95:1 96:1 103:2 253:0
0 1:8 2:5 3:6 4:2 6:4 7:10 8:5 9:2 14:2 15:1 25:4 36:4 37:2 253:0
0 1:6 2:3 3:6 4:5 5:3 6:3 7:6 8:3 9:6 10:1 11:3 15:2 16:1 20:3 25:1 29:4 34:3 36:2 90:1 91:1 112:3 113:3 253:0
0 1:16 2:15 3:2 4:7 5:8 6:4 7:2 8:1 9:9 10:1 11:9 14:4 15:4 16:2 20:2 23:1 24:1 28:1 29:3 36:1 90:1 91:1 253:0
0 1:10 2:9 3:2 4:9 5:2 6:10 7:2 8:1 9:5 10:5 11:4 12:2 13:1 15:1 20:1 22:1 23:2 24:3 29:3 36:1 41:1 253:0
0 1:14 2:13 3:2 4:8 5:3 6:10 7:2 9:4 10:4 11:1 23:2 24:3 28:1 29:3 36:1 66:1 90:1 91:1 94:2 95:1 96:1 253:0
0 1:12 2:12 4:3 5:1 6:2 9:3 10:1 11:1 15:3 20:4 23:1 24:1 28:1 29:4 33:6 34:3 67:2 68:1 74:1 75:1 97:1 253:0
0 1:6 2:4 4:6 5:2 6:2 9:4 10:4 11:6 12:4 13:1 15:2 16:1 20:2 42:4 43:2 44:4 102:2 253:0
0 1:13 2:12 3:2 4:10 5:6 6:5 7:4 8:2 9:7 10:5 11:5 12:4 13:1 23:1 24:1 25:3 28:1 29:4 33:2 34:1 37:1 253:0
0 1:6 2:6 4:5 5:2 9:4 10:4 11:2 12:3 13:1 23:1 24:1 28:1 29:2 41:1 88:1 114:4 253:0
0 1:6 2:6 4:5 5:1 9:2 10:5 11:1 15:2 16:1 20:4 26:2 27:1 58:2 59:2 60:2 61:4 62:2 63:4 64:4 65:2 92:4 253:0
0 1:17 2:20 4:4 5:1 6:4 9:1 10:3 14:4 15:4 16:2 20:1 22:1 23:1 24:1 98:1 99:1 152:1 253:0
0 1:4 2:3 3:2 4:2 5:2 6:2 7:2 8:1 9:2 11:1 15:1 20:1 23:1 24:1 28:1 74:2 75:1 116:1 117:2 159:1 253:0
0 1:3 2:2 3:2 4:10 5:1 6:4 7:2 9:4 10:11 11:2 12:2 13:1 23:2 24:1 25:2 28:3 35:1 41:1 94:2 95:1 253:0
0 1:9 2:10 3:3 4:9 5:4 6:2 7:2 8:1 9:3 10:10 11:3 12:1 13:1 14:2 15:3 16:1 20:2 253:0
0 1:12 2:12 4:6 6:4 10:4 14:4 15:4 16:2 20:2 23:2 24:4 253:0
0 1:6 2:6 4:2 10:1 14:4 15:6 16:2 20:4 253:0
0 1:6 2:6 4:8 6:4 10:4 15:4 16:2 20:4 22:2 23:2 24:2 253:0
0 1:7 2:8 3:1 4:13 5:7 6:1 7:1 9:7 10:10 11:6 12:3 13:1 17:2 19:1 23:1 24:1 25:1 28:1 33:2 34:1 38:1 39:1 40:1 41:1 69:1 70:1 71:1 72:1 253:0
0 1:8 2:7 3:2 4:7 5:6 6:5 7:2 9:4 10:4 11:3 15:2 16:1 20:3 25:1 33:4 34:2 59:1 60:1 61:2 62:1 63:2 64:2 65:1 94:2 95:1 122:1 162:1 253:0
0 1:12 2:12 4:6 5:5 6:6 9:6 11:7 23:1 24:1 28:1 29:2 253:0
0 1:17 2:20 3:2 4:2 6:2 7:2 8:1 17:2 18:1 19:2 21:1 25:1 62:2 63:2 64:4 65:1 92:2 93:1 107:1 136:1 253:0
0 1:8 2:9 3:3 4:12 5:4 6:3 7:2 8:1 9:3 10:14 11:3 14:2 15:2 16:1 25:1 253:0
0 1:18 2:18 4:6 6:12 10:2 14:4 15:3 16:1 47:1 48:1 49:2 50:1 51:2 52:2 53:1 151:1 253:0
0 1:18 2:22 3:3 4:6 5:6 6:6 7:4 8:2 9:8 10:1 11:7 23:1 24:1 28:1 29:1 36:1 37:1 90:1 91:1 253:0
0 4:8 5:6 9:4 10:5 11:2 15:3 20:3 22:3 23:5 24:5 28:2 253:0
0 4:11 5:8 9:6 10:6 11:4 12:8 13:3 15:1 20:1 22:1 23:3 24:3 28:2 41:1 62:2 93:1 100:1 107:2 253:0
0 1:12 2:12 4:9 5:3 6:8 9:3 10:6 11:3 12:2 13:1 14:6 15:5 16:1 20:2 23:1 24:2 26:2 27:1 34:3 54:1 112:3 113:3 253:0
0 1:12 2:12 4:9 5:3 6:4 9:3 10:8 11:3 15:1 20:3 23:1 24:2 26:2 27:1 33:2 34:1 253:0
0 1:14 2:15 3:3 4:5 5:2 6:4 7:2 8:1 9:2 10:2 11:1 14:2 15:2 16:1 20:1 33:2 34:5 112:6 113:2 253:0
0 1:1 3:2 4:4 5:5 6:1 7:4 8:2 9:10 11:9 23:2 24:1 25:1 28:3 29:1 35:1 36:1 37:1 66:2 253:0
0 1:11 2:11 3:5 4:10 5:10 6:5 7:4 8:1 9:8 10:5 11:7 25:1 29:2 34:4 94:2 95:1 112:4 113:3 253:0
0 1:11 2:14 4:1 5:2 9:3 11:1 14:4 15:3 16:1 23:1 24:1 28:1 29:2 33:2 34:1 58:3 59:2 61:4 63:2 65:1 171:1 253:0
0 4:5 5:2 9:1 10:4 15:1 20:1 22:1 23:1 24:1 253:0
0 1:10 2:9 3:2 4:8 5:5 6:2 7:2 8:1 9:5 10:5 11:4 12:4 13:1 14:3 15:5 16:2 20:3 23:1 24:1 28:1 58:2 59:1 60:1 61:2 62:1 63:2 64:2 65:1 92:2 103:1 253:0
0 1:18 2:18 4:13 5:5 6:8 9:4 10:11 11:6 15:3 16:1 20:4 22:1 23:2 24:3 253:0
0 1:12 2:12 4:6 5:1 9:1 10:8 14:4 15:4 16:2 20:2 23:1 24:1 26:2 27:1 28:1 62:2 63:2 64:4 65:1 74:1 92:2 93:1 97:1 107:1 253:0
0 1:8 2:7 3:5 4:6 5:1 6:2 7:8 8:4 9:2 10:4 15:7 16:2 20:9 26:2 27:1 29:1 32:1 36:1 37:3 66:2 103:2 253:0
0 1:12 2:12 4:5 5:3 6:4 9:4 10:3 11:2 14:4 15:4 16:1 20:2 23:1 28:1 29:2 253:0
0 1:19 2:23 3:3 4:5 5:4 6:5 7:2 8:1 9:4 10:1 11:3 15:1 20:1 22:1 23:2 24:2 25:1 28:1 33:2 34:1 66:2 253:0
0 1:6 2:6 4:7 5:3 6:2 9:2 10:4 11:1 14:2 15:5 16:2 20:4 22:1 23:1 24:1 253:0
0 1:2 2:1 3:5 4:8 5:4 7:8 8:4 9:4 10:8 11:1 12:2 13:1 15:1 20:1 29:1 36:3 37:3 66:2 253:0
0 1:10 2:9 3:2 4:9 5:3 6:10 7:2 8:1 9:6 10:2 11:1 12:5 13:3 29:2 34:2 35:1 38:2 40:2 41:3 72:4 88:1 112:2 114:2 179:2 253:0
0 1:12 2:12 4:4 5:6 9:9 10:1 11:9 29:4 62:2 92:4 93:1 253:0
0 1:12 2:12 3:7 4:4 6:3 7:7 8:3 10:1 14:5 15:5 16:2 20:3 25:1 33:2 34:1 37:1 94:3 95:1 103:1 253:0
0 1:6 2:6 4:9 5:2 6:2 7:4 8:1 9:1 10:9 23:1 24:2 25:4 34:1 37:2 66:1 94:2 95:1 96:1 112:2 253:0
0 1:10 2:9 3:2 4:5 5:6 6:4 7:2 8:1 9:6 11:6 14:6 15:8 16:4 20:2 22:1 23:1 24:1 253:0
0 4:13 5:1 9:2 10:15 11:1 15:5 16:2 20:4 22:3 23:3 24:2 28:1 32:1 55:1 253:0
0 1:11 2:14 4:8 5:7 9:8 10:5 11:7 15:1 20:2 23:2 24:1 26:2 27:1 28:3 35:1 62:2 63:2 64:4 65:1 92:2 93:1 107:1 253:0
0 4:8 5:1 9:1 10:10 15:1 20:1 22:1 23:1 24:1 253:0
0 1:7 2:6 3:2 4:7 5:8 6:2 7:2 9:6 10:3 11:4 12:3 13:1 14:2 15:2 20:1 22:1 23:3 24:3 28:2 41:1 62:4 92:1 93:2 94:2 95:2 100:1 107:3 110:1 144:1 253:0
0 1:12 2:12 4:5 5:3 6:2 9:8 10:7 11:7 14:2 15:2 16:1 22:1 23:1 28:1 29:4 32:1 35:1 253:0
0 9:6 11:4 35:2 39:4 40:2 253:0
0 1:10 2:9 3:2 4:4 5:1 6:3 7:2 8:1 9:3 10:4 11:3 25:1 26:2 27:1 253:0
0 4:2 5:1 9:1 12:2 13:1 15:1 20:1 23:1 24:1 28:1 54:1 58:1 59:1 61:2 63:2 65:1 83:1 84:1 86:2 158:1 253:0
0 1:7 2:6 3:2 4:7 6:6 7:4 8:2 10:5 23:2 24:4 25:4 37:1 253:0
0 1:12 2:12 4:4 6:4 9:4 10:2 11:3 15:2 16:1 20:3 22:1 23:2 24:1 28:2 29:4 35:1 253:0
0 1:18 2:18 4:5 6:10 10:1 14:8 15:9 16:4 20:4 22:1 23:1 24:1 253:0
0 1:6 2:6 4:14 5:4 6:2 9:3 10:14 11:1 15:3 16:1 20:5 22:1 23:3 24:3 28:2 74:1 97:1 253:0
0 4:5 5:3 9:2 10:3 11:1 15:2 20:2 22:2 23:3 24:3 28:1 253:0
0 1:6 2:4 3:4 4:5 5:2 6:4 7:6 8:3 9:2 10:1 11:1 12:2 13:1 15:2 16:1 20:1 23:1 24:1 28:1 33:2 34:4 37:1 40:1 72:2 88:1 89:1 103:2 112:3 113:3 114:2 253:0
0 1:15 2:14 3:7 4:2 6:5 7:6 8:2 9:7 11:6 14:4 15:4 16:2 23:1 25:1 28:2 29:6 33:2 34:1 35:1 66:1 94:2 95:1 96:1 253:0
0 4:4 5:3 9:4 10:3 11:1 15:1 20:1 22:1 23:1 24:1 35:1 39:2 40:1 253:0
0 1:18 2:18 4:8 5:7 6:10 9:7 10:2 11:6 23:3 24:3 28:3 33:4 34:2 40:1 72:2 88:1 89:1 114:1 253:0
0 1:6 2:6 4:7 5:2 9:3 10:6 11:1 23:2 24:2 28:2 29:2 74:1 97:1 253:0
0 4:5 5:5 9:3 10:2 11:1 15:2 20:2 22:2 23:3 24:3 28:1 62:2 107:2 139:2 140:1 253:0
0 1:15 2:17 3:3 4:2 5:1 6:3 7:4 8:2 9:2 11:1 14:7 15:6 16:3 17:3 18:1 19:2 21:1 23:1 24:1 28:1 37:1 103:1 253:0
0 4:15 5:7 9:7 10:15 11:6 12:2 13:1 15:5 16:2 20:4 22:2 23:3 24:3 28:1 38:1 39:1 40:1 41:1 55:1 62:4 93:2 100:1 106:1 107:4 149:1 253:0
0 1:3 2:1 3:3 4:5 5:1 6:4 7:6 8:3 9:2 10:1 15:1 20:1 25:3 29:1 36:1 37:1 42:1 43:1 44:2 45:1 66:2 102:1 253:0
0 1:14 2:15 3:3 4:4 5:3 6:5 7:2 8:1 9:4 10:1 11:3 25:1 66:2 253:0
0 4:4 10:3 15:5 20:8 253:0
0 4:4 5:1 9:6 10:3 11:3 15:5 16:1 20:8 23:1 28:2 32:1 35:2 38:2 39:3 40:2 253:0
0 1:8 2:6 3:6 4:6 5:2 6:4 7:6 8:3 9:2 10:2 11:1 15:1 20:1 22:1 23:2 24:2 25:3 28:1 34:3 40:1 42:2 43:1 44:2 45:1 72:2 88:1 89:1 102:1 112:3 113:3 114:2 253:0
0 1:3 2:1 3:4 4:12 5:5 6:1 7:8 8:4 9:6 10:11 11:4 12:1 13:1 15:2 16:1 20:2 23:1 24:1 25:5 28:1 37:2 41:2 66:2 253:0
0 1:18 2:18 4:7 5:3 6:4 9:3 10:6 11:3 12:3 13:1 14:2 15:2 20:1 23:1 24:1 28:1 29:2 33:4 34:2 253:0
0 1:6 2:6 4:6 5:5 6:2 9:2 10:5 11:1 23:1 24:2 26:2 27:1 253:0
0 1:12 2:12 4:5 5:1 6:4 9:2 10:3 11:1 14:2 15:2 16:1 20:1 253:0
0 1:13 2:14 3:7 4:6 5:4 6:5 7:8 8:4 9:4 10:2 11:1 12:4 13:2 23:1 24:1 25:1 28:1 29:1 36:1 37:2 66:2 253:0
0 1:13 2:12 3:1 4:4 5:2 6:6 7:2 8:1 9:3 11:3 15:2 17:1 18:1 19:2 20:2 21:1 25:1 36:1 136:1 153:1 253:0
0 1:12 2:12 4:6 5:3 6:8 9:2 10:3 11:1 14:8 15:7 16:3 23:1 24:1 28:1 50:1 51:3 52:3 53:3 82:1 253:0
0 1:18 2:18 4:7 5:1 6:10 9:3 10:2 11:1 14:2 15:2 20:1 22:1 23:2 24:2 28:1 29:4 40:2 72:4 88:2 89:2 114:3 253:0
0 4:4 5:3 9:3 10:1 11:1 15:1 20:1 27:2 50:1 51:1 52:1 76:2 77:3 78:2 79:1 80:2 81:2 82:1 253:0
0 1:6 2:6 4:9 5:7 6:2 9:8 10:6 11:7 12:2 13:1 14:2 15:3 16:1 20:1 22:1 23:2 24:3 29:4 33:2 34:1 41:1 253:0
0 4:2 5:1 9:4 11:6 15:2 16:1 20:2 22:1 23:1 24:1 253:0
0 1:12 2:12 4:2 6:4 9:2 14:4 15:4 20:2 22:2 23:2 24:2 29:4 127:2 128:1 253:0
0 1:6 2:6 4:12 5:3 6:4 9:3 10:16 11:3 14:2 15:1 253:0
0 1:8 2:9 4:5 6:5 10:1 12:3 13:1 14:2 15:2 16:1 17:3 18:1 19:2 20:1 21:1 22:1 23:1 24:1 253:0
0 1:6 2:6 4:11 5:8 6:6 9:7 10:8 11:5 23:5 24:5 28:5 253:0
0 1:18 2:18 4:4 5:5 6:6 9:8 11:7 14:2 15:2 16:1 22:1 23:1 28:1 29:4 32:1 253:0
0 1:6 2:4 3:4 4:11 5:3 6:5 7:6 8:3 9:4 10:7 11:3 12:3 13:1 14:1 15:5 16:2 20:4 23:1 24:1 25:1 28:1 29:1 36:3 37:1 103:1 253:0
0 1:17 2:15 3:8 4:5 5:2 6:5 7:6 8:3 9:5 11:4 14:4 15:6 16:3 20:3 25:1 29:5 36:1 90:1 91:1 253:0
0 1:12 2:12 4:4 5:5 6:4 9:5 10:1 11:2 14:2 15:2 16:1 23:2 24:2 28:2 29:2 34:3 88:1 111:3 113:3 114:2 127:1 128:1 154:1 253:0
0 1:12 2:12 9:4 11:2 23:1 28:2 29:4 33:2 34:1 35:1 59:1 60:1 61:2 62:1 63:2 64:2 65:1 92:2 253:0
0 1:6 2:6 4:2 5:2 9:4 11:2 26:2 27:1 29:2 34:3 35:1 58:2 59:2 60:2 61:4 62:4 63:4 64:4 65:2 92:4 93:1 107:2 112:3 113:3 253:0
0 1:6 2:6 4:14 5:4 6:2 9:4 10:10 11:6 15:2 20:2 253:0
0 1:13 2:12 3:2 4:10 5:1 6:10 7:6 8:2 9:1 10:5 15:2 20:4 22:1 23:1 24:1 25:6 37:2 66:2 94:2 95:3 144:2 253:0
0 1:3 2:2 4:2 6:2 15:1 17:2 18:1 19:2 20:1 21:2 23:1 24:1 253:0
0 1:6 2:6 4:16 5:6 6:2 9:5 10:22 11:4 15:3 16:1 20:2 22:1 23:1 24:1 253:0
0 1:6 2:4 3:4 4:8 5:5 6:3 7:6 8:3 9:7 10:5 11:6 14:2 15:4 16:2 20:3 25:1 29:2 34:4 36:4 37:1 111:2 112:4 113:2 253:0
0 1:9 2:10 3:3 4:11 5:3 6:3 7:2 8:1 9:3 10:7 11:3 12:6 13:2 15:4 16:2 20:6 22:2 23:3 24:3 25:1 28:1 41:1 253:0
0 1:15 2:17 3:2 4:4 6:4 7:2 8:1 10:2 14:4 15:4 16:2 25:2 253:0
0 4:16 5:2 9:2 10:14 11:1 15:1 20:1 23:1 24:1 28:1 253:0
0 1:9 2:8 4:9 5:2 6:7 9:3 10:6 11:3 12:4 13:1 42:2 43:1 44:2 102:1 253:0
0 1:20 2:18 3:4 4:6 5:1 6:6 7:4 8:2 9:3 10:8 11:3 23:1 24:1 28:1 29:4 253:0
0 1:1 3:2 4:3 5:1 7:4 8:2 9:2 25:2 29:1 36:1 37:1 62:2 63:2 64:4 65:1 66:2 74:1 93:1 97:1 107:2 115:1 116:1 117:1 253:0
0 1:1 3:2 4:2 5:1 6:1 7:4 8:2 9:5 11:1 15:3 16:1 20:2 23:1 24:1 25:1 28:1 29:1 32:1 35:1 36:1 37:1 38:1 39:2 40:1 66:2 253:0
0 4:18 5:3 9:3 10:19 11:3 15:3 16:1 20:6 22:1 23:1 24:1 253:0
0 1:12 2:12 4:8 5:5 6:4 9:2 10:8 11:1 253:0
0 1:1 3:2 4:1 5:1 6:1 7:4 8:2 9:5 11:1 23:2 24:1 25:1 28:3 29:1 35:1 36:1 37:1 66:2 88:1 114:2 127:1 128:1 154:1 253:0
0 1:14 2:13 3:2 4:4 6:8 7:4 8:2 9:3 11:1 14:3 15:2 16:1 29:3 30:2 31:1 36:3 37:1 90:2 91:2 103:1 253:0
0 4:10 5:3 9:3 10:9 11:3 15:1 20:3 23:1 24:1 28:1 34:6 40:1 72:2 73:1 74:1 75:1 112:6 113:6 253:0
0 1:12 2:12 4:6 5:2 6:6 9:3 10:4 11:3 15:1 20:1 22:1 23:2 24:2 28:1 29:2 253:0
0 1:6 2:6 4:11 5:3 6:4 9:3 10:14 11:3 12:2 13:1 14:4 15:5 16:2 20:4 253:0
0 4:23 10:33 12:5 13:2 15:4 16:1 20:7 22:1 23:3 24:5 253:0
0 1:8 2:7 3:2 7:4 8:2 9:2 14:1 15:4 16:2 29:3 36:1 37:1 58:1 59:1 60:1 61:2 62:1 63:2 64:2 65:1 92:2 103:3 253:0
0 1:12 2:12 4:8 5:1 6:8 9:2 10:11 11:1 253:0
0 1:6 2:6 4:4 6:2 10:3 15:1 20:1 22:1 23:1 24:1 253:0
0 1:6 2:6 4:3 5:2 6:2 9:1 10:2 15:1 20:1 22:1 23:1 24:1 67:2 68:1 253:0
0 1:6 2:6 4:8 5:5 6:2 9:4 10:4 11:2 14:4 15:4 16:2 20:2 23:1 24:1 28:1 34:6 112:6 113:6 253:0
0 1:10 2:9 3:2 4:9 5:8 6:6 7:2 8:1 9:10 10:3 11:8 12:3 13:1 23:1 24:1 28:1 29:3 36:1 41:1 90:1 91:1 253:0
0 4:1 5:1 9:2 11:1 23:2 24:1 28:2 62:2 93:1 100:1 107:1 109:1 253:0
0 1:10 2:9 3:2 4:15 5:5 6:10 7:2 8:1 9:3 10:14 15:2 16:1 20:2 35:1 38:2 39:1 40:2 72:3 118:2 119:1 253:0
0 4:16 5:8 9:8 10:15 11:7 15:1 20:1 22:1 23:5 24:4 28:5 35:1 253:0
0 1:7 2:6 3:5 4:1 6:1 7:6 8:3 25:3 37:1 42:1 43:1 44:2 45:1 253:0
0 1:6 2:6 4:10 5:3 6:4 9:2 10:6 11:1 12:8 13:3 14:6 15:8 16:4 20:1 23:2 24:3 28:1 54:1 253:0
0 1:10 2:6 3:8 4:8 5:6 6:5 7:8 8:4 9:7 10:5 11:4 23:1 24:1 25:3 28:1 29:4 34:3 36:2 112:3 113:3 253:0
0 1:10 2:10 3:5 4:7 5:5 6:4 7:6 8:3 9:7 10:5 11:4 23:1 24:1 28:1 36:2 37:1 66:2 74:1 97:1 253:0
0 1:12 2:12 4:3 5:3 6:4 9:5 11:4 14:6 15:6 16:3 20:1 23:1 24:1 28:1 253:0
0 1:1 3:2 4:5 5:4 6:1 7:4 8:2 9:3 10:3 11:1 15:1 20:1 22:1 23:2 24:2 25:1 28:1 37:1 253:0
0 4:3 5:2 9:2 10:1 11:1 15:1 20:1 22:1 23:2 24:2 28:1 62:1 107:2 253:0
0 1:6 2:6 4:5 6:2 10:3 12:2 13:1 14:2 15:3 16:1 20:2 22:1 23:2 24:3 26:4 27:2 253:0
0 1:2 2:1 3:5 4:4 5:1 7:8 8:4 9:2 10:5 15:2 16:1 20:3 36:2 37:3 47:1 48:1 49:2 50:1 51:2 52:2 53:1 66:2 151:1 253:0
0 1:6 2:6 4:6 5:2 6:2 9:1 10:5 15:2 16:1 20:4 22:1 23:1 24:1 26:2 27:1 253:0
0 1:9 2:8 4:4 5:4 6:6 9:7 10:1 11:5 12:1 13:1 23:2 24:2 28:2 29:2 41:1 42:2 43:1 44:2 253:0
0 1:6 2:6 4:6 5:8 6:2 9:6 10:2 11:4 12:2 13:1 15:1 20:1 22:1 23:3 24:3 27:1 28:2 41:1 62:2 76:1 93:1 100:1 107:2 133:1 253:0
0 1:10 2:8 3:4 4:7 5:5 6:1 7:6 8:2 9:10 10:5 11:8 23:1 24:1 25:1 28:1 29:5 36:3 37:1 62:2 92:2 93:1 94:2 95:1 110:2 253:0
0 1:6 2:6 4:6 5:3 6:4 9:4 10:3 11:2 12:1 13:1 14:2 15:2 16:1 20:2 23:1 24:1 28:1 41:1 253:0
0 4:5 5:2 7:4 8:1 9:2 10:3 15:5 16:1 20:8 25:2 32:1 37:2 39:1 40:1 66:1 72:1 94:2 95:1 96:1 253:0
0 1:9 2:8 4:11 5:4 6:5 9:5 10:10 11:4 15:2 16:1 20:4 23:1 24:1 28:1 33:3 34:2 42:2 43:1 44:2 102:1 236:1 253:0
0 1:16 2:14 3:5 4:8 5:4 6:9 7:5 8:2 9:2 10:6 23:1 24:1 25:3 28:1 37:1 94:3 95:1 253:0
0 1:13 2:12 3:6 4:6 5:2 6:4 7:4 8:2 9:4 10:2 11:3 15:2 16:1 20:2 23:1 24:2 29:3 33:6 34:3 36:1 58:1 59:1 60:1 61:2 62:1 63:2 64:2 65:1 107:1 253:0
0 4:7 10:6 15:1 20:1 22:1 23:1 24:1 253:0
0 1:6 2:4 4:10 5:4 6:2 9:4 10:10 11:6 15:5 16:2 20:10 22:1 23:1 24:1 42:4 43:2 44:4 102:2 253:0
0 1:6 2:6 4:7 5:3 6:2 9:4 10:6 11:3 29:2 30:4 31:2 253:0
0 1:7 2:6 3:2 4:4 5:2 6:3 7:4 8:2 9:1 10:1 15:2 16:1 20:2 22:1 23:1 24:1 25:1 37:1 66:2 253:0
0 1:15 2:17 3:2 4:3 5:1 6:5 7:2 8:1 9:1 10:1 14:8 15:8 16:4 25:1 55:1 66:2 253:0
0 1:12 2:14 3:2 4:5 6:3 7:2 10:6 14:4 15:5 16:2 20:3 25:1 34:4 94:2 95:2 111:4 113:2 144:1 253:0
0 1:2 3:4 4:1 5:1 6:1 7:4 8:2 9:1 14:1 15:1 23:1 24:1 25:1 28:1 33:1 34:1 103:1 200:1 253:0
0 1:10 2:9 3:2 4:4 5:1 6:3 7:2 8:1 9:3 10:4 11:3 25:1 253:0
0 4:22 10:35 15:1 20:2 23:1 24:2 253:0
0 1:11 2:11 3:3 4:5 6:2 7:3 8:1 10:3 14:2 15:3 16:1 17:2 19:1 20:3 22:1 23:1 24:1 25:2 26:2 27:1 69:1 70:1 71:1 253:0
0 1:7 2:6 3:2 4:8 5:3 6:3 7:7 8:3 9:5 10:5 11:3 15:2 16:1 19:1 20:3 21:1 23:1 24:1 25:4 26:2 27:1 28:1 29:1 36:1 37:2 38:1 39:1 40:1 66:2 69:1 70:1 71:1 72:1 136:1 253:0
0 1:13 2:10 3:5 4:4 5:1 6:6 7:5 8:2 9:3 10:1 11:3 23:2 24:3 25:1 28:1 29:2 33:2 34:1 37:1 42:2 43:1 44:2 94:3 95:1 102:1 253:0
0 1:6 2:6 9:2 11:1 14:2 15:2 16:1 22:1 23:1 26:2 27:1 28:1 29:2 32:1 253:0
0 1:4 2:3 3:2 4:13 5:3 7:2 8:1 9:3 10:10 11:1 15:2 16:1 20:2 22:1 23:2 24:2 28:1 66:2 253:0
0 1:6 2:6 4:6 5:2 6:2 9:3 10:3 11:3 15:1 20:1 22:1 23:1 24:1 27:2 29:2 76:2 253:0
0 1:10 2:9 3:2 4:5 6:6 7:2 8:1 10:4 14:3 15:3 16:1 20:1 22:1 23:1 24:1 103:1 253:0
0 1:12 2:12 4:3 6:4 10:2 12:2 13:1 14:2 15:2 16:1 23:1 24:2 54:1 253:0
0 1:12 2:12 4:8 5:3 6:6 9:2 10:6 11:1 14:2 15:3 16:1 20:5 23:2 24:3 26:2 27:1 28:1 33:2 34:1 253:0
0 1:10 2:9 3:2 4:11 5:6 6:4 7:2 8:1 9:6 10:8 11:6 14:3 15:2 16:1 23:1 24:1 28:1 29:2 103:1 253:0
0 4:5 5:3 9:1 10:6 15:1 20:1 22:1 23:1 24:1 34:1 112:2 253:0
0 1:12 2:12 3:4 4:6 5:5 6:8 7:5 8:2 9:6 11:4 14:2 15:4 16:2 20:1 23:1 24:1 25:1 28:1 29:1 36:1 37:1 42:3 43:1 44:2 94:3 95:1 102:1 253:0
0 4:15 10:20 15:7 16:2 20:11 55:3 226:2 227:1 253:0
0 1:12 2:12 4:3 6:4 10:2 12:2 13:1 14:6 15:5 16:2 23:1 24:2 54:1 253:0
0 1:8 2:7 3:2 4:3 6:2 7:4 8:2 9:2 10:3 14:6 15:4 16:2 29:1 36:3 37:1 59:1 60:1 61:2 62:1 63:2 64:2 65:1 92:2 253:0
0 1:6 2:6 4:14 6:2 10:18 14:4 15:5 16:2 20:3 22:1 23:1 24:1 90:1 91:1 253:0
0 1:9 2:7 3:3 4:2 6:3 7:6 8:3 9:4 11:2 25:2 29:2 33:2 34:1 36:3 37:1 42:1 43:1 44:2 45:1 59:1 60:1 61:2 62:1 63:2 64:2 65:1 92:2 102:1 142:1 253:0
0 1:14 2:13 3:8 4:3 6:5 7:9 8:2 9:1 10:1 25:3 34:2 37:2 66:1 94:7 95:3 96:1 112:4 113:1 253:0
0 1:12 2:12 4:8 5:5 6:8 7:4 8:1 9:5 10:2 11:3 23:2 24:2 25:4 28:2 33:2 34:4 37:2 40:1 66:1 72:2 88:1 89:1 94:2 95:1 96:1 112:3 113:3 114:1 253:0
0 1:9 2:8 4:7 5:2 6:4 9:1 10:3 14:2 15:4 16:2 20:4 42:2 43:1 44:2 58:1 59:1 60:1 61:2 62:1 63:2 64:2 65:1 90:1 91:1 102:2 107:2 253:0
0 1:6 2:6 4:5 5:6 9:6 10:3 11:6 14:2 15:2 16:1 22:1 23:1 28:1 30:2 31:1 32:1 253:0
0 1:14 2:15 3:3 4:7 5:1 6:5 7:2 8:1 9:1 10:6 15:1 20:1 22:1 23:1 24:1 25:1 26:2 27:1 33:2 34:1 62:2 63:2 64:4 65:1 66:2 92:2 93:1 253:0
0 1:6 2:6 4:8 5:2 6:2 9:4 10:9 11:1 23:1 28:2 35:1 58:1 59:1 60:1 61:2 62:1 63:2 64:2 65:1 88:1 92:2 114:3 253:0
0 1:9 2:7 3:4 4:8 5:5 6:4 7:6 8:2 9:7 10:6 11:6 23:1 24:1 25:2 28:1 29:2 33:2 34:1 36:2 37:1 94:2 95:2 96:2 144:1 253:0
0 1:6 2:6 4:7 6:4 10:7 15:1 20:1 22:1 23:1 24:1 253:0
0 1:8 2:7 3:6 4:11 5:3 6:7 7:8 8:4 9:5 10:7 11:4 25:3 36:2 37:2 253:0
0 1:10 2:9 3:2 4:8 5:5 6:5 7:2 8:1 9:8 10:6 11:7 23:2 24:2 25:1 28:2 29:4 33:2 34:4 35:1 90:1 91:1 98:1 99:2 112:3 113:3 253:0
0 1:14 2:13 3:1 4:5 5:1 6:8 7:1 9:1 10:1 17:1 19:1 21:1 23:1 24:1 25:1 28:1 58:1 59:1 60:1 61:2 62:1 63:2 64:2 65:1 69:1 70:1 71:1 92:2 253:0
0 1:9 2:8 4:9 5:4 6:5 9:3 10:6 11:3 14:2 15:1 42:2 43:1 44:2 102:1 253:0
0 1:10 2:8 3:4 4:7 5:6 6:4 7:8 8:4 9:7 10:3 11:5 14:2 15:3 16:1 20:1 23:1 24:1 25:2 26:2 27:1 28:1 29:1 36:3 37:2 253:0
0 1:6 2:6 4:15 5:6 6:4 9:4 10:15 11:3 14:4 15:6 16:3 20:3 22:1 23:1 24:1 253:0
0 4:11 5:1 9:4 10:13 11:2 12:5 13:2 15:2 16:1 20:1 22:1 23:3 24:2 28:3 32:1 35:1 41:1 54:1 253:0
0 1:6 2:6 4:7 5:3 6:2 9:3 10:2 11:3 14:4 15:6 16:3 20:3 22:1 23:2 24:2 28:1 253:0
0 1:12 2:12 3:4 4:3 5:3 6:4 7:4 8:2 9:3 10:1 11:1 23:1 24:1 28:1 29:2 37:1 253:0
0 1:13 2:14 3:3 4:5 5:4 7:4 8:2 9:7 10:3 11:5 14:4 15:4 16:2 20:2 23:1 24:1 26:2 27:1 28:1 29:3 33:2 34:1 36:1 37:1 253:0
0 1:10 2:9 3:2 4:2 5:1 6:2 7:2 8:1 9:5 11:2 15:2 16:1 20:1 22:1 23:1 28:1 29:4 32:1 33:2 34:1 36:2 253:0
0 1:6 2:6 3:4 4:14 5:10 7:4 8:2 9:9 10:10 11:7 15:4 16:2 20:3 23:2 24:2 25:2 28:2 37:1 66:2 253:0
0 1:3 2:1 3:7 4:4 7:10 8:4 9:3 10:3 25:2 29:1 36:3 37:3 66:2 94:2 95:2 96:2 144:1 253:0
0 1:12 2:12 4:9 5:7 6:2 9:5 10:8 11:4 14:2 15:3 16:1 20:2 22:2 23:4 24:4 28:2 62:2 93:1 100:1 107:4 253:0
0 1:12 2:12 4:5 5:4 6:6 9:6 10:3 11:6 15:1 20:1 23:2 24:1 28:3 29:2 34:3 35:1 90:1 91:1 112:3 113:3 253:0
0 1:16 2:15 3:2 4:3 5:2 6:6 7:2 8:1 9:5 11:2 15:2 16:1 20:1 22:1 23:2 24:1 28:2 29:4 32:1 253:0
0 1:6 2:6 4:6 5:4 6:2 9:2 10:4 11:1 14:4 15:3 20:2 253:0
0 4:12 5:11 9:8 10:9 11:7 23:2 24:2 28:2 34:1 90:1 91:1 112:2 253:0
0 4:23 5:1 9:1 10:35 15:1 20:1 23:2 24:4 40:1 72:2 73:1 74:1 75:1 253:0
0 1:3 2:1 3:7 7:12 8:6 9:2 29:1 36:1 37:4 62:2 66:2 74:1 92:2 93:1 97:1 110:2 115:1 116:1 117:1 253:0
0 1:6 2:6 4:4 5:2 9:3 10:4 11:1 14:2 15:2 20:1 22:1 23:1 24:1 29:2 38:1 39:1 40:1 62:2 93:1 100:1 107:3 149:1 253:0
0 1:10 2:9 3:2 4:4 5:2 6:3 7:2 8:1 9:2 11:1 14:4 15:4 16:1 20:2 22:1 23:2 24:2 25:1 26:2 27:1 28:1 118:2 119:1 253:0
0 1:6 2:6 4:7 5:3 6:2 9:2 10:8 11:1 23:1 24:2 26:2 27:1 253:0
0 1:12 2:12 4:8 5:2 6:6 9:2 10:1 11:1 12:2 13:1 14:8 15:8 16:4 20:4 41:1 253:0
0 1:6 2:6 4:14 6:6 10:11 12:5 13:2 14:6 15:7 16:3 20:8 22:1 23:1 24:1 253:0
0 1:6 2:6 4:8 5:2 6:2 9:2 10:5 11:1 12:6 13:2 15:4 16:2 20:3 22:2 23:2 24:2 26:4 27:2 41:2 253:0
0 1:6 2:4 3:4 4:7 5:4 6:3 7:4 8:1 9:4 10:4 11:1 15:2 16:1 20:2 23:1 24:1 25:1 28:1 29:1 36:1 38:1 39:1 40:1 66:1 72:1 94:2 95:1 96:1 253:0
0 1:13 2:14 3:3 4:4 6:2 7:4 8:2 9:2 11:1 14:4 15:8 16:4 20:6 29:3 36:1 37:1 118:1 119:1 253:0
0 1:6 2:6 4:9 5:5 6:2 9:4 10:5 11:3 12:2 13:1 14:2 15:2 16:1 20:1 23:1 24:1 28:1 40:1 72:2 88:1 89:1 114:1 253:0
0 1:9 2:8 3:2 4:10 5:6 6:8 7:2 8:1 9:7 10:2 11:5 12:3 13:1 15:3 16:1 20:4 23:2 24:2 25:2 28:2 29:2 33:2 34:1 253:0
0 1:3 2:2 4:3 5:2 6:2 9:8 11:5 13:1 17:2 18:1 19:2 21:2 35:1 41:3 62:2 74:1 93:1 97:1 107:2 115:1 116:1 117:1 253:0
0 1:14 2:15 3:3 4:3 5:5 6:2 7:2 8:1 9:6 11:6 14:2 15:2 16:1 30:2 31:1 59:1 60:1 61:2 62:1 63:2 64:2 65:1 92:2 122:2 253:0
0 1:3 2:2 4:23 6:1 10:32 12:3 13:1 15:4 16:2 17:2 18:1 19:2 20:7 21:1 23:2 24:4 34:1 55:1 112:1 253:0
0 1:10 2:9 3:2 4:7 5:2 6:8 7:2 8:1 9:1 10:4 33:1 34:1 58:1 59:1 60:1 61:2 62:1 63:2 64:2 65:1 107:2 200:1 253:0
0 15:1 22:1 23:1 47:1 48:1 49:2 50:1 51:2 52:2 53:1 151:1 237:1 253:0
0 4:8 5:3 9:4 10:8 11:2 23:1 27:1 28:2 35:1 76:1 88:1 114:2 116:1 188:1 253:0
0 1:7 2:5 3:2 4:13 5:2 6:2 7:2 8:1 9:2 10:16 11:1 14:2 15:4 16:2 20:4 25:1 42:2 43:1 44:2 102:1 253:0
0 1:12 2:12 4:5 5:2 6:4 9:2 10:1 11:1 14:2 15:4 16:2 20:4 22:1 23:2 24:2 26:2 27:1 28:1 34:3 112:3 113:3 253:0
0 1:4 2:3 3:2 4:3 5:3 6:2 7:2 8:1 9:2 10:1 23:1 24:1 28:1 88:1 114:2 253:0
0 1:6 2:5 3:6 4:6 5:5 6:3 7:8 8:3 9:3 10:4 11:1 25:1 37:2 58:2 59:1 60:1 61:2 62:1 63:2 64:2 65:1 66:1 90:1 91:1 94:2 95:1 96:1 107:1 253:0
0 1:6 2:6 4:12 5:3 6:4 9:3 10:14 11:3 12:2 13:1 14:4 15:6 16:3 20:4 22:1 23:1 24:1 54:1 253:0
0 1:16 2:15 3:2 4:5 5:2 6:8 7:2 8:1 9:2 10:2 11:1 15:2 16:1 20:2 22:1 23:1 26:2 27:1 28:1 32:1 118:2 119:1 253:0
0 1:12 2:12 4:8 6:4 10:10 14:6 15:4 16:1 20:2 253:0
0 1:1 3:2 4:2 5:2 6:1 7:4 8:2 9:7 11:6 15:1 20:1 22:1 23:3 24:2 25:1 28:3 29:1 35:1 36:1 37:1 66:2 253:0
0 1:6 2:6 4:4 5:5 6:2 9:5 11:4 14:2 15:2 16:1 23:1 24:1 28:1 62:2 63:2 64:4 65:1 92:2 93:1 253:0
0 1:6 2:6 4:16 5:7 6:2 9:6 10:22 11:6 15:3 16:1 20:4 22:1 23:1 24:1 27:1 29:2 32:1 76:1 253:0
0 1:12 2:12 4:11 5:1 6:10 9:2 10:7 11:1 14:6 15:5 16:2 20:4 23:2 24:1 28:2 62:2 93:1 100:1 107:2 109:1 253:0
0 1:13 2:13 3:5 4:9 5:5 6:4 7:4 8:2 9:9 10:5 11:9 14:1 15:2 16:1 20:1 23:1 28:2 29:4 33:2 34:1 35:1 103:1 253:0
0 1:17 2:17 3:3 4:6 5:2 6:7 7:2 8:1 9:1 10:2 15:1 20:1 22:1 23:1 24:1 42:2 43:1 44:2 58:1 59:1 60:1 61:2 62:1 63:2 64:2 65:1 92:1 102:1 118:2 119:1 121:1 253:0
0 1:12 2:12 4:8 5:2 6:8 9:2 10:5 58:2 59:2 60:2 61:4 62:2 63:4 64:4 65:2 107:2 253:0
0 1:10 2:8 3:4 4:9 5:5 6:7 7:6 8:2 9:11 10:7 11:8 23:1 24:1 25:3 28:1 29:4 36:2 37:1 66:1 94:2 95:1 96:1 253:0
0 4:14 5:4 9:2 10:17 11:1 12:2 13:1 15:3 16:1 20:6 22:1 23:2 24:2 27:1 28:1 76:1 253:0
0 1:12 2:12 4:3 6:8 15:4 16:2 20:2 22:2 23:2 24:2 253:0
0 1:12 2:12 4:12 6:6 10:9 14:2 15:10 16:3 20:15 26:2 27:1 253:0
0 1:5 2:5 3:4 4:5 5:1 6:2 7:4 8:1 9:2 10:1 15:2 16:1 20:2 22:1 23:1 24:1 29:2 37:1 40:1 66:1 72:2 88:1 89:1 94:2 95:1 96:1 114:1 253:0
0 1:8 2:7 3:1 4:5 5:3 7:1 9:8 10:3 11:7 12:1 13:1 15:2 16:1 17:1 19:1 20:2 22:1 23:2 24:2 28:1 29:5 32:1 33:6 34:3 36:1 41:1 69:1 70:1 71:1 253:0
0 1:12 2:12 4:5 5:3 6:4 9:2 10:3 11:1 14:6 15:4 20:2 253:0
0 1:6 2:6 4:2 5:1 6:2 9:2 10:1 11:1 14:2 15:2 20:2 253:0
0 1:6 2:6 4:3 6:2 14:4 15:5 16:2 20:3 22:3 23:3 24:3 253:0
0 1:6 2:6 4:4 5:1 6:2 9:3 10:2 11:3 12:2 13:1 14:4 15:5 16:2 20:1 22:1 23:2 24:3 29:2 41:1 55:1 253:0
0 1:15 2:17 3:2 4:2 6:3 7:2 8:1 10:1 14:8 15:8 16:4 25:1 253:0
0 4:25 10:36 12:3 13:1 15:3 16:1 20:5 22:1 23:3 24:5 253:0
0 1:12 2:12 4:5 5:6 6:2 9:9 11:9 12:2 13:1 23:1 24:1 26:4 27:2 28:1 29:4 62:2 93:1 106:1 107:2 253:0
0 1:6 2:6 4:7 6:2 9:2 10:8 11:1 15:2 16:1 20:3 22:1 23:1 26:2 27:1 28:1 29:2 32:1 34:3 112:3 113:3 118:2 119:1 253:0
0 1:8 2:7 3:1 4:2 6:3 7:1 9:2 17:1 19:1 25:1 29:3 58:1 59:1 60:1 61:2 62:1 63:2 64:2 65:1 69:1 70:1 71:1 92:2 153:1 253:0
0 1:11 2:14 4:6 6:2 10:5 14:2 15:5 16:2 20:3 22:1 23:1 24:1 74:2 75:1 116:1 117:2 159:1 253:0
0 1:8 2:9 3:3 4:7 5:2 6:4 7:2 8:1 9:4 10:6 11:3 58:1 59:1 60:1 61:2 62:1 63:2 64:2 65:1 107:1 253:0
0 1:6 2:6 4:6 5:5 6:2 9:12 10:2 11:10 12:1 13:1 15:1 20:1 23:2 24:1 28:3 29:2 35:2 41:2 74:1 97:1 115:1 116:1 117:1 253:0
0 4:22 10:34 12:3 13:1 15:1 20:3 23:1 24:2 253:0
0 4:20 10:30 12:7 13:3 23:2 24:4 253:0
0 1:6 2:6 4:10 5:4 6:2 9:4 10:10 11:6 15:5 16:2 20:8 22:1 23:1 24:1 253:0
0 1:3 2:2 4:1 6:1 17:2 18:1 19:2 21:1 59:1 60:1 61:2 62:1 63:2 64:2 65:1 74:1 92:1 238:1 239:1 253:0
0 1:10 2:9 3:6 4:3 6:3 7:6 8:3 14:2 15:2 16:1 20:1 25:1 34:3 37:1 62:2 63:1 64:2 93:1 107:1 110:2 112:3 113:3 253:0
0 1:1 3:2 4:14 5:4 6:1 7:2 9:2 10:13 15:2 20:2 25:1 66:1 94:2 95:2 96:1 144:1 253:0
0 4:3 10:2 15:1 20:1 22:1 23:1 24:1 253:0
0 4:5 5:2 9:5 10:3 11:3 12:1 13:1 15:4 16:1 20:6 23:1 28:2 32:1 34:2 35:1 38:1 39:1 40:1 41:1 72:1 112:4 113:1 253:0
0 1:1 3:2 4:6 5:2 6:1 7:4 8:2 9:4 10:4 11:1 15:5 16:1 20:8 25:1 29:1 32:1 36:1 37:1 38:1 39:1 40:1 66:2 253:0
0 1:6 2:6 4:15 5:6 6:4 9:7 10:11 11:5 12:6 13:2 14:4 15:4 16:2 20:4 23:2 24:2 26:2 27:1 28:2 41:1 55:1 253:0
0 1:17 2:16 3:7 4:4 5:2 6:4 7:6 8:3 9:6 10:1 11:6 14:2 15:2 16:1 20:1 23:1 24:1 28:1 29:4 36:2 74:1 105:2 253:0
0 1:14 2:12 3:4 4:9 5:2 6:6 7:4 8:2 9:4 10:10 11:2 23:1 24:1 28:1 29:3 36:1 90:1 91:1 253:0
0 1:14 2:12 3:4 4:13 5:3 6:8 7:4 8:2 9:3 10:14 11:3 12:2 13:1 14:4 15:6 16:3 20:6 22:2 23:2 24:2 253:0
0 4:10 10:13 15:1 20:2 253:0
0 1:12 2:12 4:4 5:6 6:2 9:6 11:6 14:6 15:6 16:3 20:1 23:1 24:1 26:2 27:1 28:1 55:1 253:0
0 1:16 2:14 3:4 4:2 6:2 7:8 8:4 9:1 12:1 13:1 14:7 15:6 16:3 25:4 29:1 36:1 37:2 58:1 59:1 60:1 61:2 62:1 63:2 64:2 65:1 103:1 106:1 253:0
0 1:6 2:6 4:7 5:3 6:4 9:3 10:4 11:3 15:1 20:2 29:2 34:6 90:1 91:1 112:6 113:6 253:0
0 4:5 10:7 15:1 20:1 22:1 23:1 24:1 253:0
0 1:6 2:6 4:1 5:2 9:5 11:2 26:4 27:2 29:2 35:1 38:1 39:2 40:1 253:0
0 4:13 5:3 9:3 10:11 11:3 12:1 13:1 15:5 16:2 20:4 22:2 23:3 24:3 28:1 41:1 55:1 62:6 63:1 64:2 93:3 100:1 106:2 107:5 164:1 253:0
0 1:10 2:9 3:2 4:3 5:1 6:2 7:2 8:1 9:4 10:1 11:2 14:2 15:2 16:1 20:1 26:2 27:1 29:1 30:2 31:1 33:2 34:1 35:1 36:1 98:1 99:2 253:0
0 1:6 2:6 4:10 5:3 6:4 9:3 10:8 11:3 23:1 24:2 253:0
0 1:12 2:12 4:5 5:3 6:4 9:3 10:1 11:3 14:6 15:8 16:4 20:3 23:1 24:2 26:2 27:1 253:0
0 4:27 10:42 15:3 20:5 22:1 23:1 24:1 253:0
0 1:12 2:12 4:2 5:3 6:2 9:9 11:9 23:1 24:1 28:1 29:6 253:0
0 1:12 2:12 4:11 5:6 6:6 9:5 10:10 11:4 15:1 20:1 22:1 23:1 24:1 253:0
0 1:9 2:8 4:8 5:2 6:7 9:3 10:5 11:1 23:1 24:1 28:1 29:1 38:1 40:1 42:2 43:1 44:2 72:2 102:1 142:1 253:0
0 4:4 5:3 9:2 10:3 11:1 15:1 20:1 22:1 23:2 24:2 28:1 253:0
0 1:11 2:14 4:7 5:6 6:2 9:6 10:2 11:6 23:1 24:1 28:1 253:0
0 1:6 2:6 4:8 5:9 6:2 9:9 10:2 11:9 12:2 13:1 14:6 15:6 16:3 23:2 24:2 28:2 253:0
0 1:2 2:1 3:2 4:13 5:8 6:3 7:2 9:8 10:12 11:7 23:2 24:2 25:1 28:2 29:1 36:1 94:2 95:1 253:0
0 1:18 2:18 4:3 5:3 6:4 9:7 10:1 11:3 23:2 24:1 28:3 29:4 33:2 34:1 35:2 38:1 40:1 72:2 253:0
0 1:6 2:6 4:4 6:4 9:2 10:2 12:2 13:1 23:2 24:2 28:2 35:1 40:1 72:2 88:1 89:1 114:1 253:0
0 4:20 5:7 9:4 10:29 11:3 15:1 20:3 23:1 24:1 28:1 90:1 91:1 253:0
0 1:15 2:13 3:7 4:2 6:6 7:8 8:4 9:2 14:4 15:2 25:2 29:1 36:3 37:2 253:0
0 1:10 2:9 3:2 4:8 5:3 6:5 7:2 8:1 9:2 10:5 11:1 14:2 15:2 16:1 20:1 23:1 24:1 25:1 28:1 34:3 112:3 113:3 253:0
0 4:24 10:29 12:8 13:3 15:5 16:1 20:10 253:0
0 1:6 2:6 4:11 5:3 6:2 9:4 10:8 11:3 15:1 20:2 29:2 58:1 59:1 60:1 61:2 62:1 63:2 64:2 65:1 253:0
0 4:3 5:7 9:5 10:1 11:3 23:1 24:1 28:1 31:1 35:1 74:2 97:2 115:2 116:2 117:2 124:1 253:0
0 1:9 2:10 3:3 4:8 5:4 6:2 7:2 8:1 9:5 10:4 11:4 14:2 15:2 16:1 29:2 253:0
0 1:10 2:9 3:2 4:8 5:6 6:2 7:8 8:4 9:10 10:4 11:8 15:4 16:2 20:4 23:1 25:2 28:2 29:4 35:1 36:4 37:3 253:0
0 1:15 2:16 3:3 4:3 5:3 6:6 7:2 8:1 9:5 11:4 14:8 15:8 16:4 23:1 24:1 28:1 29:2 55:1 253:0
0 1:12 2:12 4:5 5:2 6:4 9:6 10:3 11:6 29:4 253:0
0 1:6 2:6 4:6 5:6 6:2 9:5 10:3 11:4 14:2 15:2 16:1 23:1 24:1 28:1 59:1 60:1 61:2 62:1 63:2 64:2 65:1 92:2 253:0
0 1:6 2:6 4:14 6:4 10:10 12:4 13:2 15:4 20:7 22:1 23:1 24:1 253:0
0 1:12 2:12 3:6 4:12 5:4 6:11 7:7 8:3 9:4 10:8 11:3 23:1 24:1 25:1 28:1 37:2 94:3 95:1 253:0
0 1:13 2:11 3:11 4:3 5:2 6:5 7:10 8:3 9:2 15:1 20:1 25:1 37:2 66:2 94:4 95:3 96:2 144:1 253:0
0 1:10 2:9 3:2 4:2 5:3 6:2 7:2 8:1 9:6 11:6 29:1 36:1 253:0
0 1:4 2:3 3:2 4:5 5:2 6:2 7:2 8:1 9:2 10:2 11:1 12:6 13:2 23:1 24:1 28:1 41:1 90:1 91:1 253:0
0 1:10 2:9 3:2 4:6 5:6 6:5 7:2 8:1 9:5 10:1 11:4 23:1 24:1 25:1 28:1 34:3 58:2 59:1 60:1 61:2 62:1 63:2 64:2 65:1 92:2 112:3 113:3 253:0
0 1:6 2:6 4:4 5:5 6:2 9:4 10:1 11:2 15:2 16:1 20:1 23:2 24:2 28:2 253:0
0 4:1 15:2 20:2 27:3 55:1 76:3 104:3 253:0
0 1:7 2:6 3:2 4:8 5:5 6:3 7:4 8:2 9:7 10:9 11:6 23:1 24:1 25:1 26:2 27:1 28:1 33:2 34:1 37:1 66:2 253:0
0 1:6 2:6 4:11 5:5 6:2 9:7 10:8 11:6 12:5 13:2 14:2 15:3 16:1 20:1 22:1 23:2 24:3 29:4 33:2 34:2 41:1 112:1 179:1 253:0
0 4:23 10:35 12:5 13:2 15:3 20:6 23:2 24:4 34:1 112:3 253:0
0 4:2 5:2 9:2 10:1 11:1 15:1 20:1 22:1 23:2 24:1 28:1 62:2 93:1 100:1 107:1 109:1 253:0
0 1:2 2:1 3:5 4:7 5:3 7:8 8:4 9:3 10:5 11:1 15:7 16:2 20:10 29:1 32:1 36:1 37:3 66:2 253:0
0 1:8 2:9 3:3 4:7 5:5 6:2 7:2 8:1 9:3 10:5 11:1 15:2 20:2 22:2 23:3 24:3 28:1 253:0
0 1:6 2:6 4:4 6:2 10:2 12:3 13:1 14:4 15:5 16:2 20:3 22:1 23:1 24:1 34:6 111:3 112:3 113:6 253:0
0 1:6 2:6 4:1 5:1 6:2 9:5 11:2 35:1 38:1 39:2 40:1 253:0
0 1:12 2:12 4:10 5:6 6:6 9:6 10:4 11:4 14:4 15:5 16:2 20:3 23:1 24:1 28:1 29:2 34:3 112:3 113:3 253:0
0 1:1 3:1 4:10 5:9 6:1 7:2 8:1 9:10 10:5 11:10 12:3 13:1 15:2 20:1 22:1 23:3 24:3 25:1 28:2 36:1 40:1 41:1 42:1 43:1 44:2 45:1 62:2 72:2 73:1 74:1 75:1 93:1 100:1 107:2 142:1 253:0
0 1:12 2:12 3:2 4:1 6:2 7:2 8:1 9:2 11:1 14:2 15:1 25:1 29:2 33:2 34:1 42:2 43:1 44:2 45:1 102:1 253:0
0 1:6 2:6 4:2 6:2 9:1 10:1 15:3 16:1 20:3 22:1 23:1 26:2 27:1 28:1 32:1 253:0
0 1:6 2:6 4:10 5:4 6:2 9:3 10:11 11:3 15:2 16:1 20:2 26:4 27:2 253:0
0 4:1 15:1 20:1 253:0
0 1:6 2:6 4:7 5:3 6:2 9:3 10:6 11:1 15:1 20:2 29:2 30:4 31:2 253:0
0 4:7 5:3 9:4 10:6 11:2 23:1 27:1 28:2 35:1 76:1 88:1 114:2 116:1 188:1 253:0
0 1:6 2:6 3:4 4:8 5:5 6:2 7:4 8:2 9:6 10:2 11:4 12:4 13:2 15:4 16:2 20:3 22:1 23:2 24:3 32:1 34:3 37:1 41:1 54:2 88:1 112:3 113:3 114:3 253:0
0 1:7 2:6 3:2 4:9 5:3 6:4 7:4 8:2 9:4 10:9 11:3 12:2 13:1 29:2 34:3 37:1 41:1 66:2 90:1 91:1 112:3 113:3 253:0
0 4:20 5:4 9:3 10:14 11:3 15:8 16:4 20:11 22:4 23:4 24:4 253:0
0 1:6 2:6 4:11 5:1 6:2 9:3 10:11 11:3 15:2 16:1 20:4 253:0
0 1:7 2:6 3:2 4:12 5:11 6:5 7:4 8:1 9:10 10:6 11:8 23:2 24:2 25:1 28:2 36:2 37:1 94:2 95:1 253:0
0 4:5 10:3 12:2 13:1 15:2 16:1 20:2 22:1 23:1 24:1 90:1 91:1 253:0
0 4:7 5:4 9:6 10:5 11:4 35:1 39:2 40:1 253:0
0 1:6 2:6 4:4 5:3 6:2 9:3 10:2 11:1 15:1 20:2 29:2 58:1 59:1 60:1 61:2 62:1 63:2 64:2 65:1 253:0
0 1:6 2:6 4:12 5:4 6:2 9:3 10:10 11:3 23:1 24:2 253:0
0 1:3 2:2 4:15 5:3 6:2 9:3 10:15 11:3 15:2 16:1 20:2 22:1 23:1 24:1 42:2 43:1 44:2 253:0
0 1:18 2:18 4:7 6:6 10:5 14:14 15:13 16:4 20:9 23:1 24:2 253:0
0 1:12 2:12 4:6 5:5 6:4 9:7 10:3 11:5 12:1 13:1 14:2 15:2 16:1 20:1 33:4 34:2 35:1 41:2 98:1 99:2 253:0
0 1:12 2:12 4:14 6:10 10:12 14:2 15:8 16:2 20:12 26:2 27:1 253:0
0 1:17 2:15 3:4 4:3 5:1 6:6 7:4 8:1 9:4 11:1 12:2 13:1 23:1 24:1 28:1 29:4 59:1 60:1 61:2 62:1 63:2 64:2 65:1 66:1 92:2 94:2 95:1 96:1 122:2 253:0
0 1:8 2:9 4:6 5:3 6:1 9:2 10:3 11:1 14:2 15:3 16:1 17:3 18:1 19:2 20:3 21:1 23:1 24:2 253:0
0 1:12 2:12 4:11 5:1 6:8 9:2 10:14 11:1 15:1 20:1 22:1 23:2 24:2 28:1 29:2 253:0
0 4:22 10:31 12:3 13:1 15:2 16:1 20:4 22:1 23:2 24:3 118:1 119:1 253:0
0 1:13 2:14 3:3 4:9 5:6 6:4 7:2 9:11 10:5 11:9 23:2 24:1 28:3 29:2 35:1 66:1 74:1 94:2 95:1 96:1 97:1 253:0
0 4:10 5:4 9:6 10:9 11:3 12:1 13:1 15:6 16:2 20:10 22:1 23:2 24:1 28:2 32:1 35:1 38:1 39:1 40:1 41:1 72:1 253:0
0 4:15 5:8 9:7 10:15 11:6 15:4 16:2 20:2 22:2 23:3 24:3 28:1 38:1 39:1 40:1 55:1 62:2 93:1 100:1 107:4 253:0
0 1:18 2:18 4:4 5:2 9:4 10:4 11:2 23:2 24:2 28:2 29:4 62:2 63:1 64:2 88:1 92:2 93:1 107:1 114:4 253:0
0 1:11 2:9 3:3 4:5 6:8 7:4 8:2 25:3 33:2 34:1 42:1 43:1 44:2 45:1 90:1 91:1 102:1 118:2 119:1 253:0
0 4:23 10:35 12:5 13:2 15:2 20:4 23:3 24:6 253:0
0 4:11 5:9 9:7 10:10 11:4 12:6 13:2 15:4 16:2 20:3 22:1 23:3 24:4 28:1 32:2 41:2 253:0
0 1:12 2:12 4:7 5:6 6:4 9:6 10:2 11:6 12:3 13:1 15:1 20:1 26:2 27:1 62:2 92:4 93:1 253:0
0 1:6 2:3 3:7 4:6 5:2 6:5 7:7 8:2 9:4 10:5 11:1 25:1 29:1 30:2 31:1 36:1 37:1 66:1 94:5 95:2 96:1 253:0
0 1:6 2:6 4:7 5:3 6:2 9:3 10:3 11:3 12:4 13:2 14:4 15:4 16:2 23:1 24:1 28:1 55:1 253:0
0 1:12 2:12 4:2 5:2 9:6 10:1 11:6 29:4 62:2 92:4 93:1 253:0
0 1:9 2:10 3:3 4:14 5:5 6:9 7:2 8:1 9:4 10:9 11:3 12:6 13:2 15:3 16:1 20:5 22:1 23:2 24:2 25:1 28:1 33:2 34:1 41:1 253:0
0 1:12 2:12 4:10 5:4 6:4 9:3 10:9 11:3 15:1 20:2 23:1 24:2 253:0
0 1:6 2:6 4:10 5:3 6:2 9:2 10:8 11:1 14:2 15:5 16:2 20:5 253:0
0 1:12 2:10 3:7 4:4 5:6 7:10 8:5 9:11 10:1 11:8 29:6 36:4 37:3 66:2 253:0
0 1:15 2:14 3:7 4:7 5:2 6:10 7:6 8:2 9:2 10:2 23:1 24:1 25:4 28:1 66:1 94:2 95:1 96:1 253:0
0 1:11 2:14 4:3 5:4 6:4 9:7 11:6 23:2 24:2 28:2 29:2 253:0
0 4:24 10:34 12:5 13:2 15:6 16:2 20:12 23:2 24:4 55:1 253:0
0 1:17 2:20 4:1 6:2 9:3 11:3 14:2 15:2 16:1 29:2 32:1 98:1 99:1 187:1 253:0
0 1:7 2:6 3:2 4:3 5:1 6:2 7:4 8:2 9:2 15:2 16:1 20:2 22:1 23:1 24:1 25:2 29:1 36:1 37:1 66:2 74:1 97:1 115:1 116:1 117:1 253:0
0 1:12 2:12 4:4 6:8 10:2 14:4 15:2 23:2 24:4 253:0
0 1:6 2:6 4:4 5:3 6:2 9:3 10:2 11:1 15:2 20:3 23:1 24:1 27:2 28:1 29:2 74:1 76:2 97:1 104:1 115:1 116:1 117:1 253:0
0 4:2 10:1 15:2 20:3 22:1 23:1 24:1 253:0
0 1:6 2:6 4:9 5:4 6:2 9:4 10:8 11:6 15:3 16:1 20:5 22:1 23:1 24:1 253:0
0 4:5 5:1 9:5 10:4 11:2 35:2 39:4 40:2 253:0
0 4:3 5:2 9:5 11:3 12:1 13:1 15:3 16:1 20:3 23:1 28:2 32:1 34:1 35:1 38:1 39:1 40:1 41:1 62:2 72:1 93:1 107:2 108:1 112:1 179:1 253:0
0 4:5 5:3 9:2 10:4 15:1 20:1 22:1 23:1 24:1 253:0
0 1:12 2:12 4:6 5:2 6:4 9:6 10:5 11:6 29:4 253:0
0 1:1 3:2 4:3 5:1 6:1 7:4 8:2 9:5 10:1 11:1 15:4 16:1 20:4 23:1 24:1 25:1 28:1 29:1 32:1 35:1 36:1 37:1 38:1 39:2 40:1 66:2 253:0
0 4:2 10:1 15:1 20:1 22:1 23:2 24:3 253:0
0 4:4 5:2 9:3 10:3 11:1 15:2 20:2 22:2 23:3 24:2 28:2 35:1 253:0
0 1:8 2:7 3:2 4:7 5:1 6:6 7:2 9:1 10:2 14:4 15:3 16:1 20:1 25:2 66:1 90:2 91:2 94:2 95:1 96:1 253:0
0 1:6 2:6 4:4 5:5 6:2 9:6 11:4 23:1 24:1 28:1 29:2 253:0
0 1:12 2:12 4:3 5:5 6:2 9:6 11:4 29:2 38:1 39:1 40:1 72:1 253:0
0 1:6 2:6 4:6 5:8 6:2 9:6 10:3 11:4 15:1 20:1 22:1 23:3 24:3 28:2 253:0
0 1:6 2:6 4:8 5:7 6:2 9:9 10:3 11:7 12:1 13:1 15:2 16:1 20:2 23:2 24:2 28:2 29:2 35:1 38:1 39:1 40:1 41:2 72:1 253:0
0 1:7 2:6 3:2 4:2 5:3 6:2 7:4 8:2 9:4 11:1 23:1 24:1 28:1 36:2 37:1 66:2 74:1 97:1 115:1 116:1 117:1 253:0
0 1:8 2:7 3:2 4:5 5:1 6:7 7:2 9:5 10:3 11:2 23:2 24:1 25:1 28:3 29:2 35:1 59:1 60:1 61:2 62:1 63:2 64:2 65:1 66:1 88:1 94:2 95:1 96:1 114:2 182:1 253:0
0 1:10 2:8 3:3 4:7 5:4 6:6 7:4 8:2 9:5 10:2 11:4 23:2 24:2 25:3 28:2 29:2 42:1 43:1 44:2 45:1 102:1 253:0
0 1:12 2:12 4:8 5:3 6:4 9:3 10:7 11:3 14:4 15:5 16:2 20:2 33:2 34:1 253:0
0 1:12 2:12 4:6 5:4 9:6 10:5 11:6 29:4 62:4 63:1 64:2 92:6 93:2 253:0
0 1:9 2:8 3:6 4:4 5:4 7:8 8:4 9:7 10:3 11:5 26:2 27:1 29:3 33:2 34:1 36:3 37:2 253:0
0 1:6 2:6 4:5 5:3 6:2 7:3 8:1 9:3 10:1 11:3 19:1 21:1 25:3 37:1 69:1 70:1 71:1 136:1 253:0
0 1:9 2:6 3:5 4:9 5:3 6:8 7:5 8:1 9:2 10:3 11:1 14:1 15:4 16:2 17:1 19:1 20:3 21:1 23:1 24:1 25:3 28:1 69:1 70:1 71:1 94:2 95:1 103:1 253:0
0 1:9 2:8 3:2 4:6 5:2 6:6 7:2 8:1 9:2 10:2 11:1 15:1 20:1 22:1 23:2 24:2 25:1 28:1 34:3 40:1 42:4 43:2 44:4 45:1 72:2 88:1 89:1 102:1 112:3 113:3 114:2 253:0
0 1:16 2:16 3:5 4:3 5:2 6:3 7:6 8:3 9:8 11:5 12:1 13:1 14:4 15:4 16:2 20:1 23:1 24:1 25:1 28:1 29:4 36:2 37:1 66:2 253:0
0 1:12 2:12 4:6 5:2 9:4 10:6 11:2 14:2 15:1 23:2 24:2 28:2 29:4 88:1 114:4 253:0
0 1:7 2:6 3:6 4:15 5:2 6:2 7:8 8:3 9:2 10:19 11:1 15:1 20:1 22:1 23:1 24:1 25:4 29:1 33:4 34:2 36:1 37:2 94:2 95:1 253:0
0 1:12 2:12 4:5 5:3 6:4 9:4 10:2 11:2 14:4 15:4 16:2 20:3 23:1 24:1 28:1 29:2 253:0
0 1:14 2:13 3:5 4:3 5:4 6:2 7:8 8:4 9:6 10:1 11:4 23:1 24:1 28:1 29:5 33:2 34:1 36:1 37:3 38:1 39:1 40:1 72:1 253:0
0 1:12 2:12 3:4 4:2 6:4 7:4 8:2 9:2 10:1 11:1 15:2 16:1 22:1 23:2 24:2 28:1 32:1 36:2 37:1 253:0
0 1:16 2:15 3:2 4:4 5:3 6:6 7:2 8:1 9:5 11:2 12:2 13:1 23:2 24:2 28:2 29:4 33:2 34:1 253:0
0 4:2 15:4 16:2 20:2 62:2 98:2 101:2 108:2 139:2 140:1 187:2 253:0
0 1:12 2:12 4:9 5:8 6:10 9:9 10:3 11:9 14:4 15:2 23:1 24:1 28:1 253:0
0 1:6 2:6 4:12 5:1 6:4 9:2 10:8 11:1 12:4 13:2 14:2 15:5 16:1 20:7 22:1 23:2 24:3 29:2 253:0
0 1:6 2:6 4:6 6:4 10:6 14:2 15:1 253:0
0 1:10 2:9 3:3 4:8 5:4 6:5 7:5 8:2 9:5 10:5 11:4 23:1 24:1 25:1 28:1 36:2 37:2 62:2 63:2 64:4 65:1 93:1 94:3 95:1 107:2 253:0
0 1:6 2:6 4:11 5:7 6:4 9:8 10:7 11:7 12:2 13:1 15:3 16:1 20:4 22:1 23:2 24:3 29:4 33:2 34:1 41:1 90:1 91:1 253:0
0 1:12 2:12 3:4 4:4 5:1 6:5 7:4 8:2 9:1 10:1 15:1 20:1 22:1 23:1 24:1 25:1 37:1 62:2 63:2 64:4 65:1 66:2 92:2 93:1 253:0
0 4:25 10:36 12:3 13:1 15:6 16:2 20:12 23:2 24:4 34:1 55:1 112:2 253:0
0 1:14 2:15 3:3 4:3 5:2 6:1 7:2 8:1 9:3 11:1 15:1 20:1 22:1 23:2 24:2 25:1 26:2 27:1 28:1 29:2 62:2 66:2 92:4 93:1 253:0
0 1:6 2:6 4:16 5:9 6:2 9:5 10:14 11:4 15:3 16:1 20:3 22:2 23:3 24:3 28:1 253:0
0 1:10 2:9 3:2 4:5 5:1 6:5 7:5 8:2 9:2 10:1 11:1 12:3 13:1 14:2 15:2 16:1 19:1 21:1 23:1 24:1 25:4 28:1 29:2 37:1 69:1 70:1 71:1 136:1 253:0
0 1:6 2:6 4:6 5:5 6:2 9:9 10:2 11:9 12:2 13:1 15:1 20:1 22:1 23:2 24:3 29:4 33:2 34:1 41:1 253:0
0 1:6 2:6 3:4 4:7 5:4 7:4 8:2 9:3 10:6 11:1 15:1 20:2 26:4 27:2 37:1 66:2 253:0
0 1:12 2:12 4:2 6:2 14:6 15:6 16:3 20:2 22:2 23:2 24:2 253:0
0 1:14 2:15 3:3 4:9 5:4 6:8 7:2 8:1 9:3 10:4 11:3 14:2 15:5 16:2 20:4 22:1 23:1 24:1 253:0
0 1:4 2:3 3:2 4:14 5:5 6:2 7:2 8:1 9:5 10:11 11:4 12:4 13:1 15:3 16:1 20:4 23:2 24:3 28:1 29:3 36:1 253:0
0 1:12 2:12 4:18 5:8 6:8 9:6 10:21 11:6 14:4 15:4 16:1 20:5 23:2 24:2 28:2 253:0
0 1:14 2:15 3:3 4:4 5:1 6:5 7:2 8:1 9:1 10:1 14:2 15:3 16:1 20:1 22:1 23:2 24:3 25:1 26:2 27:1 66:2 253:0
0 1:14 2:13 3:2 4:7 5:3 6:2 7:4 8:2 9:6 10:5 11:4 23:2 24:2 28:2 29:4 36:2 37:1 74:1 97:1 253:0
0 1:12 2:12 4:3 5:5 6:2 9:7 11:6 14:4 15:2 16:1 26:2 27:1 29:2 38:1 39:1 40:1 72:1 253:0
0 1:21 2:20 3:7 4:3 5:1 6:7 7:8 8:4 9:2 11:1 25:3 29:1 36:1 37:1 59:1 60:1 61:2 62:1 63:2 64:2 65:1 92:2 253:0
0 4:3 15:6 16:3 20:6 55:3 253:0
0 1:8 2:9 3:3 4:10 5:4 6:4 7:2 8:1 9:3 10:10 11:3 62:2 93:1 107:1 253:0
0 1:8 2:9 3:3 4:2 5:1 6:2 7:2 8:1 9:3 10:1 11:3 14:2 15:1 50:1 51:3 52:3 53:3 82:1 253:0
0 1:12 2:12 3:4 4:3 5:4 7:4 8:2 9:5 11:4 25:2 29:2 37:1 59:1 60:1 61:2 62:1 63:2 64:2 65:1 92:2 122:2 253:0
0 1:14 2:10 3:8 4:3 5:2 6:6 7:8 8:3 9:5 10:1 11:2 29:3 33:2 34:1 36:3 66:1 94:2 95:1 96:1 253:0
0 4:5 5:2 9:5 10:3 11:4 12:1 13:1 15:4 16:1 20:6 23:2 24:1 28:3 32:1 35:1 41:1 68:1 167:1 184:1 253:0
0 1:6 2:6 4:9 5:8 6:2 9:8 10:4 11:7 12:4 13:2 15:3 16:1 20:3 23:3 24:4 28:2 32:1 33:4 34:2 41:2 54:1 253:0
0 1:2 2:1 3:2 4:4 5:2 7:4 8:2 9:5 10:3 11:3 29:2 36:4 37:1 74:1 105:2 253:0
0 1:6 2:6 4:17 6:4 10:17 12:2 13:1 14:2 15:5 16:1 20:7 22:1 23:1 24:1 118:2 119:1 253:0
0 4:6 5:4 9:3 10:5 11:3 15:1 20:1 22:1 23:2 24:2 28:1 62:2 63:2 64:4 65:1 93:1 100:1 107:4 253:0
0 47:2 48:2 49:4 50:2 51:4 52:4 53:2 166:1 253:0
0 1:6 2:6 4:8 5:2 9:3 10:11 11:1 12:2 13:1 26:2 27:1 29:2 35:1 58:1 59:2 60:2 61:4 62:2 63:4 64:4 65:2 92:4 253:0
0 1:10 2:8 3:4 4:2 5:2 6:4 7:8 8:4 9:4 11:2 36:4 37:2 253:0
0 1:6 2:6 4:14 5:1 6:4 9:1 10:16 12:6 13:2 14:2 15:4 20:5 23:3 24:5 28:1 54:2 253:0
0 1:12 2:12 3:5 4:6 5:6 6:4 7:8 8:3 9:7 10:1 11:6 14:2 15:2 16:1 23:3 24:4 25:2 28:2 29:1 36:1 37:2 66:1 94:2 95:1 96:1 253:0
0 1:6 2:6 4:6 5:4 6:4 9:2 10:4 11:1 14:2 15:3 20:3 253:0
0 4:24 10:35 12:5 13:2 15:4 16:1 20:7 22:1 23:3 24:5 34:1 112:3 253:0
0 1:6 2:6 4:6 5:6 6:2 9:5 10:3 11:4 14:2 15:2 16:1 23:1 24:1 28:1 59:1 60:1 61:2 62:1 63:2 64:2 65:1 92:2 253:0
0 1:6 2:6 4:2 6:2 10:1 14:4 15:3 20:1 253:0
0 1:2 2:1 3:5 4:4 5:1 7:8 8:4 9:2 10:3 14:1 15:7 16:2 20:8 32:1 36:2 37:3 66:2 103:1 253:0
0 4:22 10:33 12:5 13:2 15:3 20:6 23:2 24:4 253:0
0 1:4 2:3 3:2 7:2 8:1 9:1 29:2 253:0
0 1:4 2:3 3:2 4:1 6:1 7:2 8:1 14:3 15:4 16:2 25:1 26:4 27:5 76:3 103:1 104:3 253:0
0 1:8 2:7 3:6 4:11 5:2 6:2 7:8 8:4 9:2 10:14 11:1 15:1 20:1 22:1 23:1 24:1 25:2 29:1 33:4 34:2 36:1 37:2 253:0
0 4:6 5:2 9:1 10:4 15:1 20:1 22:1 23:1 24:1 62:2 63:1 64:2 93:1 107:2 210:2 211:1 212:1 253:0
0 1:6 2:6 4:3 5:2 6:2 9:1 10:2 14:2 15:2 20:1 22:1 23:1 24:1 67:4 68:2 253:0
0 1:14 2:15 3:3 4:15 5:6 6:11 7:2 8:1 9:6 10:11 11:6 15:2 16:1 20:2 23:1 24:2 25:1 29:2 90:1 91:1 253:0
0 1:18 2:18 4:4 5:7 6:2 9:9 11:9 14:4 15:4 16:2 23:1 24:1 28:1 29:4 55:1 62:2 92:4 93:1 253:0
0 4:5 5:2 9:8 10:2 11:12 15:4 16:2 20:4 22:2 23:2 24:2 253:0
0 1:8 2:7 3:2 4:3 5:5 6:2 7:4 8:2 9:6 11:6 14:4 15:4 16:2 36:2 37:1 55:1 253:0
0 1:6 2:6 4:6 5:6 6:2 9:7 10:3 11:4 23:3 24:3 28:3 29:4 38:1 39:1 40:1 72:1 253:0
0 1:2 2:1 3:1 4:21 6:3 7:1 10:32 12:3 13:1 15:1 17:1 19:1 20:3 21:1 69:1 70:1 71:1 118:1 119:1 253:0
0 1:4 2:3 3:2 4:6 5:2 6:2 7:2 8:1 9:2 10:3 11:1 12:2 13:1 14:2 15:2 16:1 20:2 253:0
0 4:1 5:1 9:4 11:6 15:1 20:1 253:0
0 1:6 2:6 4:11 6:2 10:14 15:3 16:1 20:5 22:1 23:1 24:1 253:0
0 1:6 2:6 4:8 5:1 6:2 9:3 10:10 11:3 14:2 15:2 20:3 253:0
0 1:6 2:6 4:3 5:2 6:2 9:2 11:1 14:2 15:4 16:1 20:3 22:1 23:1 24:1 74:1 75:1 97:2 253:0
0 1:9 2:7 3:4 4:6 5:4 6:3 7:7 8:5 9:8 10:2 11:7 15:2 16:1 20:2 23:1 25:1 28:2 29:3 33:2 34:1 35:1 36:1 37:3 253:0
0 1:2 3:2 4:10 5:3 6:1 7:4 8:2 9:4 10:11 11:2 17:1 18:1 19:2 21:2 23:1 24:1 25:1 28:1 36:1 42:1 43:1 44:2 45:1 62:2 92:1 93:1 107:1 121:1 136:1 142:1 253:0
0 1:10 2:9 3:2 4:4 6:2 7:2 8:1 9:1 10:6 14:3 15:2 16:1 29:2 103:1 253:0
0 1:12 2:12 4:3 5:1 6:4 9:1 10:1 23:1 24:1 28:1 62:2 63:1 64:2 93:1 107:3 253:0
0 1:6 2:6 4:9 5:9 9:10 10:6 11:8 15:2 16:1 20:1 23:2 24:1 28:3 29:2 35:1 88:2 114:4 128:1 154:2 253:0
0 4:21 10:32 12:3 13:1 15:1 20:1 23:2 24:4 54:1 253:0
0 1:12 2:9 3:6 4:3 6:6 7:8 8:3 9:1 14:1 15:2 16:1 18:1 19:2 21:1 25:3 29:1 36:1 58:1 59:1 60:1 61:2 62:1 63:2 64:2 65:1 92:2 94:2 95:1 103:1 136:2 253:0
0 1:6 2:6 4:2 5:1 6:2 9:2 10:1 11:1 14:6 15:6 16:2 20:2 253:0
0 4:10 10:13 15:2 20:6 253:0
0 1:12 2:12 4:5 5:3 6:4 9:7 10:2 11:4 14:4 15:2 16:1 23:1 24:1 28:1 29:4 33:2 34:2 38:1 39:1 40:1 58:3 59:2 61:4 63:2 65:1 90:1 91:1 112:2 171:1 253:0
0 4:1 5:3 9:7 11:3 23:3 24:1 28:5 35:3 253:0
0 1:12 2:12 4:3 6:4 9:4 10:2 11:3 23:2 24:2 28:2 29:4 35:1 253:0
0 1:12 2:12 4:10 6:8 10:6 14:4 15:8 16:2 20:8 62:2 93:1 107:4 253:0
0 1:4 2:2 3:4 4:9 5:4 6:1 7:6 8:2 9:6 10:6 11:4 15:2 16:1 20:2 25:1 29:2 34:2 36:4 37:1 66:1 94:2 95:1 96:1 112:4 113:1 253:0
0 1:2 2:1 3:2 4:10 5:8 7:4 8:2 9:8 10:7 11:5 12:5 13:2 23:2 24:2 28:2 29:2 35:1 36:2 37:1 41:2 253:0
0 4:24 10:34 12:5 13:2 15:6 16:2 20:12 23:2 24:4 34:2 55:1 112:5 253:0
0 4:4 5:4 9:4 10:2 11:3 23:2 24:2 28:2 253:0
0 4:11 10:8 15:2 20:2 62:4 93:2 107:4 253:0
0 4:5 10:4 15:5 20:8 23:1 24:2 253:0
0 1:6 2:6 4:15 5:9 6:2 9:5 10:13 11:4 15:3 16:1 20:3 22:2 23:3 24:3 28:1 253:0
0 1:12 2:12 4:8 6:6 10:10 14:10 15:13 16:6 20:4 22:1 23:1 24:1 55:1 253:0
0 1:13 2:14 3:3 4:4 5:5 7:4 8:2 9:7 10:1 11:6 14:8 15:8 16:4 20:3 23:1 24:1 28:1 29:1 36:3 37:1 253:0
0 4:11 5:3 9:2 10:18 11:1 253:0
0 1:6 2:6 4:3 5:2 6:2 9:1 10:2 14:4 15:4 20:3 22:1 23:1 24:1 253:0
0 1:10 2:8 3:4 4:4 5:1 6:7 7:6 8:2 9:1 25:3 33:2 34:3 37:1 66:2 94:2 95:1 112:2 113:1 253:0
0 4:6 5:6 9:6 10:2 11:2 23:2 24:2 28:2 62:2 107:2 139:2 140:1 253:0
0 1:11 2:9 3:2 4:5 5:4 6:6 7:2 9:4 10:2 11:1 17:2 18:1 19:2 21:1 23:1 24:1 25:1 26:3 27:2 28:1 33:4 34:2 66:1 94:2 95:1 96:1 234:1 253:0
0 4:22 10:32 12:3 13:1 15:1 20:3 23:1 24:2 118:1 119:1 253:0
0 1:6 2:6 4:9 5:7 6:2 7:4 8:1 9:7 10:6 11:6 15:2 16:1 20:3 26:2 27:1 36:4 37:2 94:2 95:1 253:0
0 1:7 2:6 3:2 4:6 5:6 6:2 7:4 8:2 9:7 10:2 11:4 14:2 15:2 16:1 20:1 23:2 24:1 25:2 28:2 29:3 34:2 36:1 37:1 62:2 66:2 93:1 100:1 107:1 109:1 112:2 113:1 253:0
0 1:10 2:10 3:4 4:8 5:8 6:2 7:6 8:3 9:6 10:7 11:4 15:1 20:1 23:1 24:1 26:2 27:1 28:1 29:1 36:1 37:2 253:0
0 1:12 2:12 4:9 5:4 6:8 9:3 10:7 11:3 12:4 13:1 23:3 24:6 253:0
0 1:12 2:12 4:13 5:3 6:6 9:4 10:18 11:3 15:1 20:3 29:2 58:1 59:1 60:1 61:2 62:1 63:2 64:2 65:1 253:0
0 1:12 2:12 4:5 5:2 6:4 9:2 10:2 11:1 14:6 15:7 16:3 20:3 253:0
0 1:14 2:12 3:4 4:3 6:6 7:4 8:2 10:1 14:5 15:4 16:2 103:1 253:0
0 1:6 2:6 4:2 5:1 9:2 11:1 14:2 15:2 16:1 20:1 23:1 24:1 28:1 29:2 253:0
0 1:12 2:12 4:9 5:5 6:4 9:6 10:8 11:6 29:4 253:0
0 4:10 5:9 9:6 10:8 11:4 15:2 20:2 22:2 23:4 24:4 28:2 253:0
0 88:1 253:0
0 1:6 2:6 3:4 4:5 5:4 7:10 8:5 9:7 11:6 15:4 16:2 20:4 25:2 34:2 36:6 37:4 66:2 112:2 113:1 253:0
0 1:11 2:11 3:4 4:10 5:8 6:5 7:6 8:3 9:8 10:5 11:7 15:4 16:2 20:4 23:1 24:1 25:1 28:1 29:1 36:3 37:2 253:0
0 1:9 2:10 3:3 4:1 6:2 7:2 8:1 14:2 15:1 30:2 31:1 253:0
0 1:12 2:12 9:2 14:4 15:2 16:1 29:4 58:1 59:1 60:1 61:2 62:1 63:2 64:2 65:1 74:1 97:1 115:1 116:1 117:1 253:0
0 1:6 2:6 4:11 5:6 9:8 10:11 11:6 12:2 13:1 15:2 16:1 20:3 23:1 24:1 26:4 27:2 28:1 29:2 35:1 38:1 39:1 40:1 41:2 72:1 253:0
0 4:2 5:4 9:4 11:2 253:0
0 1:6 2:5 3:6 4:7 5:5 6:3 7:8 8:3 9:4 10:5 11:1 25:1 29:1 36:1 37:2 58:2 59:1 60:1 61:2 62:1 63:2 64:2 65:1 66:1 90:1 91:1 94:2 95:1 96:1 107:2 253:0
0 4:3 5:2 9:1 10:2 15:1 20:1 22:1 23:1 24:1 62:2 93:1 107:1 253:0
0 1:12 2:12 4:12 5:5 6:4 9:5 10:14 11:4 14:2 15:2 20:1 22:1 23:2 24:2 28:1 253:0
0 1:12 2:12 4:6 5:4 6:4 9:4 10:2 11:2 14:4 15:4 16:1 20:3 23:1 24:1 28:1 90:1 91:1 253:0
0 1:2 2:1 3:1 4:21 6:2 7:1 10:21 12:8 13:3 15:4 16:1 17:1 19:1 20:7 21:1 22:1 23:2 24:3 25:1 69:1 70:1 71:1 253:0
0 1:12 2:12 4:10 5:3 6:6 9:3 10:8 11:3 15:1 20:3 23:1 24:2 33:2 34:1 253:0
0 1:6 2:6 4:13 5:3 6:6 9:3 10:16 11:3 253:0
0 1:14 2:15 4:7 5:6 6:2 9:8 10:2 11:7 12:2 13:1 14:2 15:2 16:1 20:1 23:1 24:1 28:1 29:4 42:3 43:1 44:2 253:0
0 4:5 5:4 9:4 10:3 11:1 253:0
0 4:13 5:10 9:11 10:14 11:10 23:2 24:1 28:3 34:1 35:1 90:1 91:1 112:2 253:0
0 1:9 2:6 3:6 4:7 5:2 6:7 7:8 8:4 9:2 10:2 15:2 16:1 20:1 23:2 24:4 25:5 37:1 66:4 253:0
0 1:12 2:12 4:8 6:4 10:5 12:6 13:2 14:4 15:8 16:3 20:6 22:3 23:3 24:3 54:2 253:0
0 4:4 10:2 12:2 13:1 15:6 16:1 20:8 22:1 23:1 24:1 54:2 253:0
0 1:7 2:6 3:2 4:4 5:5 6:1 7:2 9:10 11:7 14:2 15:4 16:2 20:2 23:1 24:1 25:1 28:1 29:3 33:4 34:2 35:1 36:1 38:1 39:2 40:1 66:1 94:2 95:2 96:1 144:1 253:0
0 4:5 5:2 9:5 10:3 11:3 12:1 13:1 15:3 16:1 20:4 23:1 28:2 32:1 35:1 38:1 39:1 40:1 41:1 72:1 253:0
0 1:6 2:6 4:6 5:5 6:2 9:4 10:4 11:2 23:3 24:3 28:3 253:0
0 1:16 2:15 3:2 4:9 5:4 6:12 7:2 8:1 9:5 10:6 11:3 12:1 13:1 23:1 25:2 28:2 35:1 39:1 40:1 41:1 72:1 88:1 89:1 114:1 253:0
0 1:8 2:9 3:3 4:9 6:5 7:2 8:1 10:7 15:3 16:1 20:5 22:1 23:1 24:1 25:1 253:0
0 1:12 2:12 4:14 5:4 6:8 9:2 10:12 11:1 14:2 15:4 16:1 20:4 22:1 23:1 24:1 90:1 91:1 253:0
0 4:23 10:35 12:5 13:2 15:3 20:6 23:2 24:4 34:1 112:3 253:0
0 1:10 2:9 3:2 4:4 6:7 7:5 8:2 9:1 14:4 15:2 19:1 21:1 25:4 26:3 27:2 29:2 37:1 69:1 70:1 71:1 74:2 97:1 105:2 115:1 116:1 117:1 132:1 136:1 253:0
0 1:12 2:12 4:7 5:6 6:4 9:6 10:2 11:6 12:3 13:1 15:1 20:1 26:2 27:1 62:2 92:4 93:1 253:0
0 1:10 2:7 3:7 4:6 5:3 6:7 7:9 8:4 9:4 10:1 11:3 12:1 13:1 14:2 15:4 16:2 20:2 23:1 24:1 25:3 28:1 33:2 34:1 37:2 41:1 66:1 94:4 95:2 96:1 253:0
0 1:10 2:8 3:6 4:8 6:10 7:5 8:2 10:3 15:3 16:1 20:2 22:1 23:1 24:1 25:2 94:3 95:1 253:0
0 1:7 2:6 3:2 4:2 5:2 6:3 7:2 9:2 23:1 24:1 25:1 28:1 33:4 34:2 66:1 94:2 95:2 96:1 144:1 253:0
0 1:6 2:6 4:12 5:5 6:2 9:4 10:12 11:3 15:4 16:2 20:3 22:1 23:1 28:1 32:1 58:1 59:1 60:1 61:2 62:1 63:2 64:2 65:1 253:0
0 4:8 5:6 9:5 10:6 11:4 23:2 24:2 28:2 253:0
0 4:4 5:2 9:1 10:4 15:1 20:1 22:1 23:1 24:1 62:1 107:3 253:0
0 1:6 2:6 4:3 5:2 6:2 9:1 10:2 15:1 20:2 253:0
0 1:14 2:13 3:2 4:4 5:2 6:2 7:4 8:2 9:5 10:2 11:4 14:7 15:6 16:3 20:1 23:2 24:1 28:2 29:1 36:1 37:1 62:2 93:1 100:1 103:1 107:2 109:1 253:0
0 1:14 2:15 4:8 6:5 10:6 15:6 16:1 20:11 33:2 34:1 42:3 43:1 44:2 102:1 253:0
0 1:9 2:9 3:5 4:10 5:2 6:5 7:6 8:3 9:2 10:8 23:1 24:2 25:3 37:1 66:4 253:0
0 1:12 2:12 4:3 6:4 9:4 10:2 11:3 15:1 20:2 23:1 28:2 29:4 35:1 253:0
0 1:6 2:6 4:2 5:1 6:2 9:1 10:1 14:4 15:3 20:2 253:0
0 1:6 2:6 4:10 5:3 6:2 9:2 10:13 11:1 253:0
0 4:2 5:2 9:4 11:2 23:1 27:2 28:2 35:1 76:2 88:1 114:2 116:1 188:1 253:0
0 1:4 2:3 3:2 4:1 5:1 6:2 7:2 8:1 9:2 23:1 24:1 28:1 66:2 253:0
0 4:20 10:21 12:4 13:2 15:3 20:5 22:1 23:2 24:3 253:0
0 1:19 2:17 3:2 4:5 5:1 6:9 7:2 8:1 9:1 14:4 15:4 16:2 17:2 18:1 19:2 20:1 21:2 23:1 24:1 25:1 28:1 58:1 59:1 60:1 61:2 62:1 63:2 64:2 65:1 92:2 253:0
0 1:6 2:6 4:7 5:8 9:11 10:2 11:10 23:1 26:2 27:1 28:2 29:2 35:1 39:1 40:1 72:1 88:1 89:1 114:2 253:0
0 1:6 2:6 4:5 5:3 6:2 9:2 10:3 11:1 27:1 76:1 253:0
0 1:6 2:6 4:9 6:6 10:12 14:2 15:1 253:0
0 1:10 2:9 3:2 4:2 6:1 7:4 8:1 9:1 14:2 15:3 16:1 18:1 19:2 20:1 21:2 25:3 29:2 34:3 62:2 63:2 64:4 65:1 92:4 93:1 94:2 95:1 111:3 113:3 136:2 253:0
0 1:6 2:6 4:4 5:2 6:2 7:4 8:1 9:4 10:4 11:3 23:1 24:1 27:1 28:1 33:6 34:3 35:1 37:2 66:1 94:2 95:1 96:1 132:2 253:0
0 1:8 2:7 3:2 4:11 5:6 6:8 7:2 9:6 10:6 11:6 23:2 24:2 25:2 28:2 33:4 34:5 94:2 95:1 112:3 113:3 253:0
0 1:12 2:12 4:3 6:8 14:12 15:8 16:2 20:2 22:2 23:2 24:2 253:0
0 1:3 2:2 3:2 7:2 8:1 253:0
0 1:6 2:6 4:11 6:4 10:6 12:11 13:4 15:1 20:1 22:1 23:1 24:1 253:0
0 1:6 2:6 4:6 5:6 6:2 9:6 11:6 12:2 13:1 14:6 15:8 16:4 20:2 22:1 23:2 24:2 28:1 253:0
0 1:16 2:15 3:2 4:8 5:1 6:9 7:2 8:1 9:2 10:8 11:1 14:4 15:5 16:2 20:1 22:1 23:2 24:2 25:1 28:1 29:1 34:2 36:1 55:1 111:4 113:1 253:0
0 1:6 2:6 4:11 5:6 6:2 9:5 10:7 11:4 15:3 16:1 20:2 22:1 23:3 24:3 26:4 27:2 28:2 253:0
0 1:4 2:3 3:2 4:11 5:3 6:2 7:2 8:1 9:3 10:11 11:1 23:1 24:1 28:1 29:1 34:3 36:1 58:1 59:1 60:1 61:2 62:1 63:2 64:2 65:1 107:3 112:3 113:3 253:0
0 1:8 2:7 3:2 4:9 5:6 6:4 7:4 8:2 9:9 10:4 11:7 15:2 16:1 20:1 23:1 24:1 28:1 29:4 36:2 37:1 103:2 253:0
0 4:26 10:37 12:3 13:1 15:3 16:1 20:4 22:2 23:3 24:4 253:0
0 1:6 2:6 4:12 5:3 6:2 9:4 10:12 11:3 15:3 16:1 20:5 22:1 23:1 24:1 38:1 39:1 40:1 72:1 253:0
0 1:12 2:9 3:7 4:4 5:2 6:7 7:9 8:4 9:3 10:1 11:1 25:1 26:1 27:1 29:2 36:2 37:2 90:1 91:1 94:3 95:1 132:1 253:0
0 1:2 2:1 3:3 4:17 5:14 6:1 7:7 8:3 9:9 10:17 11:6 23:2 24:2 25:1 28:2 36:2 37:3 94:3 95:1 253:0
0 1:12 2:12 4:7 5:1 6:8 9:2 10:4 11:1 12:3 13:1 253:0
0 1:8 2:6 3:4 4:4 6:6 7:4 8:2 10:2 23:2 24:4 25:2 253:0
0 1:6 2:6 4:13 5:4 6:4 9:3 10:16 11:3 12:1 13:1 14:4 15:4 16:1 20:5 23:1 24:2 253:0
0 1:5 2:3 3:4 4:9 5:3 6:4 7:7 8:3 9:4 10:8 11:3 14:1 15:3 16:1 20:3 25:2 36:1 37:1 43:1 44:2 45:3 94:3 95:1 103:1 142:1 253:0
0 1:6 2:6 4:7 5:3 6:2 9:2 10:8 11:1 23:1 24:2 26:2 27:1 253:0
0 4:20 10:22 15:4 16:1 20:7 22:1 23:2 24:3 34:2 55:1 112:4 113:1 253:0
0 1:6 2:6 4:4 5:1 6:2 9:1 10:4 15:1 20:1 22:1 23:1 24:1 26:2 27:1 253:0
0 1:1 3:2 4:2 6:1 7:4 8:2 12:2 13:1 15:1 20:1 22:1 23:1 24:1 25:1 37:1 253:0
0 1:1 3:2 4:6 5:2 6:1 7:4 8:2 9:7 10:4 11:6 23:2 24:1 25:1 28:3 29:1 35:1 36:1 37:1 66:2 253:0
0 1:8 2:9 4:9 5:4 6:3 9:3 10:10 11:3 15:2 16:1 17:3 18:1 19:2 20:1 21:1 253:0
0 4:18 5:3 9:2 10:16 11:1 15:2 20:3 23:1 24:1 28:1 253:0
0 4:13 5:8 9:6 10:10 11:6 15:2 20:2 22:2 23:4 24:4 28:2 253:0
0 1:10 2:9 3:4 4:5 6:2 7:4 8:2 9:2 10:1 11:1 12:4 13:2 14:2 15:3 16:1 20:3 25:1 29:1 34:1 36:1 42:2 43:1 44:2 45:1 102:1 112:1 253:0
0 1:12 2:12 4:5 6:6 10:3 14:4 15:3 16:1 20:2 33:2 34:3 62:2 63:2 64:4 65:1 90:1 91:1 92:2 93:1 112:4 253:0
0 1:12 2:12 3:5 4:9 5:3 6:6 7:4 8:2 9:4 10:9 11:3 15:4 16:2 20:5 22:1 23:1 24:1 30:2 31:1 66:2 253:0
0 1:6 2:6 4:3 5:4 6:2 9:6 11:4 14:2 15:1 23:1 24:1 26:4 27:2 28:1 29:2 38:1 39:1 40:1 72:1 253:0
0 1:12 2:12 4:2 6:4 9:2 11:1 15:1 20:1 22:1 23:1 24:1 29:4 34:3 112:3 113:3 253:0
0 1:9 2:8 4:3 5:1 6:3 9:4 10:1 11:3 12:3 13:1 15:1 20:1 23:2 24:1 26:2 27:1 28:3 29:2 35:1 42:2 43:1 44:2 54:1 102:1 253:0
0 1:4 2:3 3:4 4:11 5:2 6:2 7:4 8:2 9:5 10:11 11:4 12:3 13:1 14:1 15:6 16:3 20:4 23:1 28:2 35:1 36:1 42:2 43:1 44:2 45:1 103:1 142:1 253:0
0 4:14 5:2 9:1 10:22 253:0
0 1:8 2:9 3:3 4:4 5:3 7:2 8:1 9:2 10:2 11:1 14:2 15:3 16:1 20:3 253:0
0 1:6 2:6 4:5 5:1 6:2 9:1 10:3 14:2 15:2 16:1 20:1 23:1 24:1 28:1 74:1 97:1 253:0
0 1:14 2:13 3:5 4:4 5:4 6:4 7:8 8:4 9:5 10:1 11:4 12:2 13:1 23:1 24:1 26:2 27:1 28:1 29:3 36:1 37:3 41:1 253:0
0 1:14 2:15 3:5 4:3 5:1 6:2 7:4 8:2 9:1 10:1 15:1 20:1 22:1 23:1 24:1 25:1 33:6 34:3 42:2 43:1 44:2 45:1 66:2 102:1 253:0
0 1:6 2:6 4:3 10:3 14:2 15:3 16:1 20:4 22:1 23:1 24:1 26:2 27:1 253:0
0 1:6 2:6 4:2 5:1 6:2 9:1 10:1 14:2 15:2 20:2 253:0
0 1:12 2:12 4:9 5:4 6:4 9:3 10:8 11:3 15:2 16:1 20:4 253:0
0 1:6 2:6 4:4 5:1 6:2 9:3 10:3 11:1 23:1 24:1 28:1 29:4 34:3 74:1 97:1 112:3 113:3 115:1 116:1 117:1 253:0
0 1:8 2:7 3:2 4:8 6:6 7:4 8:2 9:2 10:7 12:2 13:1 14:6 15:6 16:3 20:2 29:1 36:3 37:1 253:0
0 1:6 2:6 4:8 5:9 6:2 9:6 10:5 11:4 12:2 13:1 15:1 20:1 22:1 23:3 24:3 27:1 28:2 41:1 76:1 133:1 253:0
0 1:14 2:15 3:3 4:5 5:1 6:5 7:2 8:1 9:1 10:1 14:2 15:5 16:2 20:3 22:2 23:3 24:3 25:1 26:2 27:1 28:1 66:2 253:0
0 1:4 2:3 3:5 4:21 5:5 7:6 8:3 9:5 10:31 11:4 12:2 13:1 23:2 24:2 25:2 28:2 34:1 37:2 112:1 179:1 253:0
0 1:12 2:12 4:10 6:6 10:8 14:2 15:10 16:3 20:16 26:2 27:1 33:2 34:1 55:1 253:0
0 4:6 5:2 9:5 10:4 11:4 12:3 13:2 15:5 16:1 20:8 23:2 24:1 28:3 31:1 32:1 35:1 41:1 173:1 253:0
0 1:12 2:12 4:7 5:1 6:8 9:3 10:4 11:3 12:3 13:1 253:0
0 1:18 2:16 3:4 4:3 5:2 6:7 7:6 8:3 9:5 11:2 23:1 24:1 25:1 28:1 29:4 36:2 37:1 253:0
0 4:8 5:2 9:5 10:3 11:4 12:1 13:1 15:8 16:4 20:11 22:3 23:5 24:4 28:3 32:1 35:1 41:1 253:0
0 1:10 2:9 3:2 4:6 5:4 6:8 7:2 8:1 9:6 10:2 11:2 23:2 24:4 29:4 253:0
0 1:12 2:12 4:2 5:3 9:7 10:1 11:9 29:4 62:2 92:4 93:1 253:0
0 1:6 2:6 4:3 5:2 9:2 10:1 11:1 14:2 15:2 16:1 20:1 33:2 34:1 62:2 63:2 64:4 65:1 92:2 93:1 253:0
0 1:6 2:6 4:11 5:1 9:2 10:15 11:1 14:2 15:2 16:1 23:1 24:1 28:1 29:2 253:0
0 1:6 2:6 4:6 5:4 6:4 9:5 10:3 11:4 14:2 15:2 16:1 22:1 23:1 28:1 32:1 118:1 119:1 253:0
0 1:6 2:4 3:4 4:12 5:7 6:2 7:6 8:3 9:10 10:8 11:8 12:4 13:1 23:2 24:3 28:1 29:4 36:4 37:1 253:0
0 1:6 2:6 4:11 5:3 6:4 9:3 10:14 11:3 12:2 13:1 14:4 15:5 16:2 20:1 23:1 24:2 54:1 253:0
0 1:9 2:8 4:6 5:5 6:6 9:5 10:1 11:4 14:4 15:4 16:2 20:1 23:3 24:3 28:3 29:1 42:2 43:1 44:2 62:2 63:2 64:4 65:1 93:1 107:1 142:1 253:0
0 4:5 5:4 9:3 10:2 11:1 15:1 20:1 22:1 23:1 24:1 39:1 40:1 62:2 72:1 93:1 107:2 253:0
0 1:6 2:6 4:3 5:1 6:2 9:3 10:1 11:1 14:2 15:2 16:1 20:1 30:2 31:1 34:1 35:1 39:2 40:1 112:1 253:0
0 1:6 2:6 4:2 6:4 14:2 15:1 26:2 27:1 253:0
0 1:6 2:6 4:10 5:9 6:2 9:7 10:8 11:5 23:2 24:2 26:2 27:1 28:2 33:2 34:1 253:0
0 1:17 2:17 3:5 4:3 5:2 6:7 7:4 8:1 9:5 11:4 23:1 25:1 28:2 29:2 35:1 94:2 95:1 253:0
0 1:8 2:7 3:2 7:4 8:2 9:2 14:2 15:2 16:1 29:2 36:2 37:1 58:1 59:1 60:1 61:2 62:1 63:2 64:2 65:1 92:2 253:0
0 1:6 2:6 4:9 5:4 6:2 9:4 10:5 11:2 14:2 15:3 16:1 20:3 23:2 24:3 28:1 29:2 253:0
0 1:6 2:6 4:3 5:2 6:2 7:8 8:2 9:2 10:3 15:1 20:3 33:4 34:2 37:4 66:2 94:4 95:2 96:2 253:0
0 4:22 10:34 12:3 13:1 23:1 24:2 118:1 119:1 253:0
0 1:10 2:10 3:3 4:3 5:5 6:1 7:4 8:2 9:7 11:6 14:4 15:4 16:2 17:2 18:1 19:2 21:1 23:1 24:1 28:1 29:1 36:3 37:1 253:0
0 4:1 5:1 9:2 11:1 15:2 16:1 20:1 32:1 253:0
0 1:18 2:21 3:5 4:1 6:2 7:4 8:2 9:2 11:1 15:1 20:1 22:1 23:1 24:1 26:2 27:1 29:3 36:1 253:0
0 1:12 2:12 4:13 5:2 6:6 9:2 10:13 11:1 14:4 15:4 16:2 20:2 23:1 24:1 28:1 253:0
0 1:13 2:12 3:2 4:6 5:7 6:3 7:4 8:2 9:7 10:3 11:4 23:1 24:1 25:3 28:1 29:3 33:4 34:2 36:1 37:1 66:2 253:0
0 4:7 5:3 9:3 10:6 11:3 15:2 16:1 20:3 118:1 119:1 253:0
0 1:7 2:8 3:3 4:10 5:5 6:1 7:4 9:4 10:7 11:3 15:2 16:1 18:1 19:2 20:1 21:2 25:3 66:1 94:4 95:2 96:1 136:2 253:0
0 4:18 10:23 15:3 20:4 22:2 23:2 24:2 253:0
0 1:18 2:18 4:2 6:4 9:3 10:1 14:4 15:2 29:6 40:1 72:2 74:2 88:1 89:1 97:2 114:1 115:2 116:2 117:2 253:0
0 1:7 2:6 3:2 4:5 5:2 6:5 7:4 8:2 9:1 10:3 25:1 33:2 34:1 37:1 66:2 90:1 91:1 253:0
0 1:12 2:12 4:4 6:6 10:3 15:1 20:1 22:1 23:1 24:1 33:2 34:1 253:0
0 4:19 5:3 9:3 10:22 11:3 15:2 16:1 20:2 22:1 23:1 24:1 253:0
0 1:12 2:12 4:7 5:1 6:4 9:2 10:5 11:1 12:4 13:1 14:2 15:3 16:1 20:1 22:1 23:2 24:2 28:1 29:2 33:2 34:1 253:0
0 1:6 2:6 4:2 5:2 9:6 10:1 11:3 26:4 27:2 29:2 35:2 39:4 40:2 253:0
0 1:13 2:12 3:2 4:4 5:2 6:7 7:2 9:3 10:1 23:2 24:3 25:1 26:6 27:3 28:1 29:1 36:1 66:1 94:2 95:2 96:1 144:1 253:0
0 1:8 2:9 3:3 4:13 5:4 6:3 7:2 8:1 9:3 10:17 11:3 15:4 16:2 20:2 22:1 23:1 24:1 25:1 253:0
0 1:6 2:6 4:4 5:4 6:2 9:6 10:3 11:4 23:2 24:1 28:3 29:4 34:3 35:1 74:1 97:1 112:3 113:3 115:1 116:1 117:1 253:0
0 1:14 2:12 3:4 4:3 6:9 7:4 8:2 9:1 25:1 29:1 34:3 36:1 62:2 63:2 64:4 65:1 92:2 93:1 112:3 113:3 253:0
0 4:10 5:4 9:3 10:11 11:3 15:1 20:1 22:1 23:3 24:4 28:1 253:0
0 1:6 2:6 4:4 5:2 6:2 9:3 10:4 11:3 23:2 24:2 28:2 253:0
0 1:12 2:12 4:8 5:3 6:4 9:3 10:7 11:3 15:1 20:2 26:2 27:1 33:2 34:1 253:0
0 1:12 2:12 4:9 5:2 6:6 9:3 10:7 11:3 12:2 13:1 14:2 15:4 16:1 20:2 22:1 23:2 24:3 26:2 27:1 29:2 33:2 34:1 41:1 253:0
0 1:1 3:2 4:6 5:2 6:1 7:4 8:2 9:4 10:4 11:1 15:6 16:1 20:10 25:1 29:1 32:1 36:1 37:1 38:1 39:1 40:1 66:2 253:0
0 1:6 2:6 4:7 6:2 10:3 14:6 15:7 16:3 20:4 22:1 23:2 24:3 253:0
0 1:6 2:6 4:3 5:2 6:2 9:1 10:2 14:4 15:4 16:1 20:1 22:1 23:1 24:1 253:0
0 1:8 2:7 3:2 4:1 6:1 7:4 8:2 9:2 25:1 29:2 36:2 37:1 58:1 59:1 60:1 61:2 62:1 63:2 64:2 65:1 92:2 253:0
0 1:6 2:6 4:8 5:5 6:4 9:7 10:3 11:5 12:2 13:1 14:2 15:2 16:1 20:2 23:2 24:1 28:3 35:1 41:1 253:0
0 1:9 2:8 3:3 4:7 5:1 6:4 7:9 8:2 9:1 10:6 14:1 15:2 16:1 20:1 25:4 33:2 34:1 37:4 66:1 94:7 95:3 96:1 103:1 253:0
0 1:16 2:16 3:4 4:7 5:8 6:7 7:6 8:3 9:8 10:1 11:7 25:1 29:1 36:1 37:2 253:0
0 4:5 5:2 9:4 10:4 11:2 15:4 20:7 23:2 24:1 28:2 35:1 88:1 114:2 116:1 188:1 253:0
0 1:12 2:12 4:4 5:2 6:8 7:4 8:1 9:1 10:1 37:2 66:1 90:2 91:2 94:2 95:1 96:1 253:0
0 1:14 2:13 3:2 4:5 5:5 7:4 8:2 9:10 10:2 11:9 14:4 15:2 16:1 23:2 24:1 28:3 29:6 35:1 36:2 37:1 118:2 119:1 253:0
0 1:9 2:7 3:7 4:1 6:3 7:8 8:4 9:3 25:1 29:2 36:4 37:2 253:0
0 4:6 5:2 9:7 10:4 11:5 12:1 13:1 23:3 24:1 28:5 34:1 35:2 41:1 112:1 179:1 253:0
0 1:2 2:1 3:2 4:22 6:3 7:2 10:35 15:1 20:3 25:1 94:2 95:1 253:0
0 1:1 3:2 4:17 5:3 6:1 7:4 8:2 9:6 10:22 11:6 23:2 24:1 25:3 28:3 29:1 35:1 36:1 37:1 253:0
0 1:6 2:6 4:7 5:6 6:2 7:4 8:1 9:5 10:3 11:3 23:1 24:1 25:4 28:1 33:6 34:6 37:2 66:2 94:2 95:1 112:3 113:3 253:0
0 1:17 2:20 4:5 5:4 6:6 9:6 11:4 15:2 16:1 20:1 22:1 23:2 24:1 28:2 29:2 32:1 74:1 97:1 253:0
0 4:10 10:8 15:11 16:3 20:19 27:3 55:2 76:4 253:0
0 1:6 2:6 4:3 6:2 10:1 12:3 13:1 14:4 15:3 16:1 20:1 22:1 23:1 24:1 253:0
0 1:14 2:13 3:2 4:6 5:5 6:9 7:2 9:5 10:1 11:1 14:2 15:2 16:1 23:2 24:2 25:1 28:2 29:1 33:2 34:4 36:1 66:1 94:2 95:1 96:1 112:3 113:3 253:0
0 1:6 2:6 4:3 5:2 6:2 9:1 10:2 14:4 15:3 20:1 22:1 23:1 24:1 50:1 51:3 52:3 53:3 82:1 253:0
0 1:7 2:6 3:1 4:2 5:1 6:2 7:2 8:1 9:3 11:1 14:2 15:2 16:1 20:1 22:1 23:2 24:2 28:1 29:1 36:1 42:1 43:1 44:2 45:1 74:1 97:1 115:1 116:1 117:1 142:2 253:0
0 4:1 15:2 20:2 62:2 63:4 64:4 65:2 83:2 84:2 85:2 86:4 253:0
0 1:7 2:6 3:1 7:2 8:1 9:2 29:2 36:1 42:1 43:1 44:2 45:1 58:1 59:1 60:1 61:2 62:1 63:2 64:2 65:1 92:2 142:1 253:0
0 1:8 2:6 3:4 4:3 6:5 7:8 8:3 25:5 37:2 90:1 91:1 94:2 95:1 253:0
0 4:12 5:8 9:8 10:11 11:7 12:2 13:1 15:2 20:3 22:1 23:3 24:3 28:2 41:1 62:2 93:1 106:1 107:3 253:0
0 4:24 10:38 15:1 20:2 23:1 24:2 253:0
0 1:2 2:1 3:5 7:8 8:4 9:1 29:1 36:1 37:3 253:0
0 4:8 5:2 9:4 10:11 11:2 23:3 24:2 28:4 35:1 253:0
0 1:6 2:6 4:4 5:5 6:2 9:5 11:4 14:6 15:6 16:3 23:2 24:2 28:2 253:0
0 4:18 10:18 12:4 13:2 15:4 20:7 22:1 23:1 24:1 253:0
0 1:16 2:15 3:2 4:4 5:1 6:2 7:2 8:1 9:5 10:3 11:2 12:4 13:2 14:4 15:2 16:1 23:2 24:3 26:2 27:1 28:1 29:3 33:4 34:2 36:1 41:2 253:0
0 1:13 2:12 3:2 4:3 6:6 7:4 8:1 14:4 15:4 16:2 25:4 37:1 94:2 95:1 253:0
0 4:2 10:1 15:1 20:1 62:2 107:3 253:0
0 4:9 5:2 9:4 10:12 11:2 12:1 13:1 23:2 24:2 28:2 35:1 98:1 99:2 253:0
0 1:6 2:6 4:9 6:2 10:9 12:3 13:1 15:4 16:2 20:6 22:1 23:1 24:1 54:1 62:2 63:2 64:4 65:1 92:2 93:1 253:0
0 1:12 2:12 4:3 6:6 12:1 13:1 15:1 20:1 22:1 23:1 24:1 26:2 27:1 62:2 63:2 64:4 65:1 93:1 106:1 107:1 253:0
0 4:21 10:30 12:5 13:2 15:4 16:2 20:6 22:2 23:3 24:4 27:1 76:1 133:1 253:0
0 1:6 2:6 4:4 6:2 12:2 13:1 14:2 15:6 16:3 20:4 22:1 23:1 24:1 253:0
0 1:7 2:6 3:2 4:9 5:5 6:3 7:4 8:2 9:3 10:7 11:1 15:2 20:2 22:2 23:2 24:2 25:1 26:4 27:2 37:1 66:2 253:0
0 1:16 2:15 3:2 4:6 5:4 6:7 7:2 8:1 9:5 10:1 11:4 15:2 16:1 20:2 23:1 24:1 25:1 28:1 29:2 33:2 34:1 253:0
0 4:5 5:4 9:3 10:3 11:1 15:1 20:1 22:1 23:2 24:2 28:1 253:0
0 4:5 10:2 15:6 16:2 20:4 22:2 23:2 24:2 51:2 53:1 62:1 82:2 107:2 129:2 130:1 145:1 146:1 147:2 193:1 253:0
0 4:2 10:1 62:3 63:2 64:2 65:1 84:1 85:1 86:2 107:4 253:0
0 1:13 2:14 3:3 4:8 5:3 6:6 7:4 8:2 9:4 10:5 11:1 12:2 13:1 15:2 20:2 22:2 23:3 24:3 28:1 29:1 36:3 37:1 253:0
0 1:18 2:16 3:7 4:3 5:1 6:8 7:8 8:3 9:3 14:6 15:6 16:3 20:1 36:2 37:2 66:3 94:2 95:1 96:1 253:0
0 1:18 2:22 3:3 4:2 5:1 7:2 9:3 10:1 11:3 14:2 15:2 16:1 20:1 62:2 63:2 64:4 65:1 92:3 93:1 94:2 95:1 110:1 253:0
0 1:12 2:12 4:6 5:5 6:2 9:8 10:3 11:7 12:2 13:1 15:1 20:1 22:1 23:2 24:3 29:6 33:6 34:3 41:1 253:0
0 1:12 2:11 3:7 4:5 5:7 6:3 7:8 8:3 9:11 10:1 11:8 14:1 15:2 16:1 23:1 24:1 25:1 28:1 29:4 36:2 37:1 66:1 94:2 95:1 96:1 103:1 253:0
0 1:8 2:7 3:2 4:11 5:10 6:5 7:4 8:2 9:10 10:5 11:8 15:1 20:2 23:2 24:2 25:1 28:2 29:1 36:1 37:1 253:0
0 1:2 2:1 3:2 4:2 5:2 7:4 8:2 9:3 11:3 14:1 15:2 27:2 29:2 37:1 76:2 103:3 253:0
0 1:6 2:6 4:7 6:4 10:7 15:1 20:1 22:1 23:1 24:1 253:0
0 4:14 5:1 9:3 10:17 11:1 12:11 13:3 15:1 20:3 23:2 24:2 28:2 35:1 74:1 97:2 253:0
0 1:10 2:9 3:2 4:5 5:4 7:2 8:1 9:3 10:4 11:1 14:4 15:2 16:1 23:1 24:1 28:1 58:2 59:1 60:1 61:2 62:3 63:2 64:2 65:1 74:1 92:2 93:1 97:1 107:4 253:0
0 4:8 10:9 12:5 13:2 15:6 16:2 20:4 22:1 23:1 24:1 54:1 55:1 253:0
0 1:12 2:12 3:4 4:5 5:1 6:9 7:4 8:2 9:3 14:2 15:1 23:1 24:1 25:1 28:1 29:3 36:1 37:1 66:2 253:0
0 1:9 2:8 4:2 5:1 6:3 9:2 11:1 15:1 17:2 18:1 19:2 20:1 21:1 22:1 23:1 24:1 26:2 27:1 29:2 59:1 60:1 61:2 62:1 63:2 64:2 65:1 92:2 253:0
0 4:3 5:2 9:1 10:2 15:1 20:1 22:1 23:1 24:1 62:3 93:3 107:1 253:0
0 1:9 2:7 3:4 4:4 5:2 6:2 7:8 8:4 9:3 10:1 11:1 25:4 29:2 36:2 37:2 62:2 63:2 64:4 65:1 66:2 92:2 93:1 253:0
0 1:12 2:12 4:6 5:6 6:4 9:7 10:1 11:6 23:1 24:1 26:2 27:1 28:1 29:2 33:2 34:1 38:1 40:1 72:2 253:0
0 1:9 2:8 3:2 4:3 5:2 6:4 7:2 8:1 9:4 11:3 12:2 13:1 23:1 24:1 28:1 59:1 60:1 61:2 62:1 63:2 64:2 65:1 74:1 92:2 97:1 122:2 253:0
0 1:6 2:6 4:5 5:4 6:2 9:4 10:2 11:3 15:1 20:1 22:1 23:1 24:1 27:2 29:2 76:2 253:0
0 1:6 2:6 4:6 5:9 6:2 9:8 10:3 11:7 23:1 24:1 28:1 35:1 253:0
0 1:2 2:1 3:2 4:25 5:1 6:2 7:2 9:1 10:37 15:1 20:3 23:1 24:2 66:1 90:1 91:1 94:2 95:1 96:1 253:0
0 1:9 2:10 3:3 4:5 7:2 8:1 10:6 15:1 20:1 22:1 23:1 24:1 30:2 31:1 62:2 92:2 93:1 107:3 253:0
0 1:4 2:4 3:4 4:7 5:5 7:6 8:3 9:6 10:6 11:6 23:1 24:1 28:1 29:1 36:1 37:2 90:1 91:1 253:0
0 1:12 2:12 3:2 4:8 5:3 6:5 7:2 8:1 9:3 10:3 11:3 12:2 13:1 14:2 15:4 16:2 20:3 25:1 40:1 42:3 43:1 44:2 54:1 72:2 73:1 74:1 253:0
0 1:2 2:1 3:2 4:3 5:2 6:1 7:7 8:3 9:3 11:3 25:1 29:1 36:1 37:4 94:3 95:1 253:0
0 1:12 2:12 4:8 5:3 6:4 9:3 10:7 11:3 253:0
0 1:14 2:15 3:3 4:5 5:5 6:3 7:2 8:1 9:6 10:1 11:6 14:4 15:4 16:2 25:1 29:2 253:0
0 1:7 2:6 3:2 4:7 6:5 7:4 8:2 10:9 25:1 33:2 34:1 37:1 253:0
0 1:14 2:15 3:3 7:2 8:1 9:1 26:2 27:1 29:2 58:1 59:2 60:2 61:4 62:2 63:4 64:4 65:2 92:4 253:0
0 1:7 2:6 3:6 4:1 5:2 7:4 8:2 9:5 11:2 29:2 30:2 31:1 35:1 38:1 39:2 40:1 253:0
0 1:12 2:12 4:4 5:3 6:6 9:3 11:3 14:2 15:3 16:1 20:1 22:1 23:1 24:1 62:2 92:2 93:1 107:1 253:0
0 1:9 2:11 3:2 4:3 5:4 7:2 8:1 9:4 10:1 11:2 58:2 59:1 60:1 61:2 62:1 63:2 64:2 65:1 92:2 253:0
0 1:9 2:10 3:3 4:9 5:4 6:2 7:2 8:1 9:3 10:10 11:3 12:1 13:1 14:2 15:3 16:1 20:2 253:0
0 1:6 2:6 4:6 5:5 6:4 9:5 10:3 11:4 23:2 24:2 26:2 27:1 28:2 34:3 112:3 113:3 253:0
0 4:5 5:2 9:5 10:3 11:3 12:3 13:2 15:4 16:1 20:6 23:1 28:2 32:1 34:1 35:1 38:1 39:1 40:1 41:1 72:1 179:1 253:0
0 1:6 2:6 4:9 5:3 6:2 9:3 10:5 11:1 12:6 13:2 15:6 16:3 20:5 22:2 23:2 24:2 26:2 27:1 41:2 253:0
0 4:1 5:1 9:1 62:1 63:2 64:2 65:1 84:1 85:1 86:2 107:1 253:0
0 1:12 2:12 4:12 5:5 6:8 9:3 10:9 11:3 15:2 20:4 23:1 24:1 26:4 27:2 28:1 253:0
0 1:3 2:2 4:12 5:5 6:1 9:3 10:13 11:3 42:2 43:1 44:2 102:1 253:0
0 1:8 2:6 3:4 4:8 5:4 6:4 7:4 8:2 9:4 10:7 11:1 15:2 16:1 20:3 23:1 24:1 25:2 28:1 29:2 33:2 34:3 38:1 39:1 40:1 62:2 93:1 100:1 107:1 112:2 113:1 149:1 253:0
0 1:16 2:18 3:6 4:4 5:2 6:4 7:4 8:2 9:5 10:2 11:1 12:4 13:1 23:2 24:2 28:2 29:2 66:4 74:1 97:1 115:1 116:1 117:1 253:0
0 4:22 10:33 12:5 13:2 15:3 20:6 23:2 24:4 50:1 51:3 52:3 53:3 82:1 253:0
0 1:12 2:12 4:6 5:2 6:4 9:2 10:4 11:1 14:2 15:3 16:1 20:4 22:1 23:2 24:2 26:2 27:1 28:1 253:0
0 1:13 2:12 3:1 4:7 5:1 6:7 7:6 8:2 9:1 10:6 15:1 20:3 25:2 33:4 34:2 37:2 42:1 43:1 44:2 45:1 66:1 90:1 91:1 94:2 95:1 96:1 102:1 253:0
0 1:6 2:6 4:8 6:2 10:9 12:2 13:1 14:6 15:8 16:4 20:4 23:2 24:4 26:2 27:1 54:1 253:0
0 1:12 2:12 4:4 6:4 10:3 14:6 15:4 16:1 20:2 23:1 24:2 253:0
0 4:27 10:38 12:5 13:2 15:4 16:1 20:7 22:1 23:3 24:5 34:1 112:3 253:0
0 1:9 2:10 3:3 4:7 5:5 6:2 7:2 8:1 9:5 10:2 11:4 14:1 15:2 16:1 20:1 23:1 24:1 28:1 103:1 253:0
0 1:12 2:12 3:5 4:5 5:7 6:1 7:4 8:2 9:9 10:1 11:7 23:1 24:1 25:1 28:1 29:5 36:1 58:1 59:1 60:1 61:2 62:1 63:2 64:2 65:1 253:0
0 1:10 2:8 3:5 4:4 5:2 7:5 8:2 9:8 10:3 11:4 14:4 15:4 16:2 20:2 23:1 28:2 29:6 33:2 34:2 35:1 36:2 37:1 94:3 95:1 112:2 253:0
0 1:8 2:5 3:7 4:6 5:4 6:2 7:7 8:3 9:7 10:4 11:5 14:1 15:2 16:1 20:2 23:1 28:2 29:3 33:2 34:2 35:1 36:1 37:1 94:3 95:1 103:1 112:2 253:0
0 4:22 10:32 12:4 13:1 15:1 20:3 23:1 24:2 118:1 119:1 253:0
0 1:16 2:16 3:5 4:10 5:6 6:9 7:6 8:3 9:8 10:3 11:6 23:1 24:1 25:3 28:1 29:4 37:1 66:2 253:0
0 1:12 2:12 4:6 5:1 6:4 9:3 10:6 11:1 23:1 28:2 33:2 34:1 35:1 62:2 63:2 64:4 65:1 92:4 93:1 253:0
0 13:1 253:0
0 4:8 5:3 9:3 10:6 11:3 12:1 13:1 15:2 20:3 22:1 23:2 24:2 28:1 41:1 62:6 63:1 64:2 93:3 100:1 106:2 107:5 164:1 253:0
0 1:8 2:7 3:1 4:7 6:7 7:1 10:6 17:1 19:1 21:1 23:1 24:2 34:3 62:2 63:2 64:4 65:1 69:1 70:1 71:1 92:2 93:1 112:3 113:3 253:0
0 1:12 2:12 4:6 5:6 6:4 9:8 10:2 11:7 14:4 15:4 16:2 23:2 24:2 28:2 29:4 253:0
0 4:3 5:2 9:5 11:3 12:1 13:1 15:3 16:1 20:3 23:1 28:2 35:1 38:1 39:1 40:1 41:1 62:2 72:1 93:1 100:1 107:2 108:1 253:0
0 1:6 2:6 4:8 5:1 6:2 9:2 10:7 11:1 14:4 15:4 16:2 20:2 22:2 23:2 24:2 253:0
0 1:12 2:12 4:5 6:4 10:1 12:2 13:1 14:4 15:6 16:3 20:4 22:1 23:2 24:3 54:1 253:0
0 1:12 2:12 4:6 5:2 9:4 10:6 11:2 23:2 24:2 28:2 29:4 88:1 114:4 253:0
0 4:5 10:4 15:6 16:1 20:9 34:1 55:1 112:2 253:0
0 4:9 5:3 9:3 10:7 11:3 12:2 13:1 15:4 16:1 20:6 22:1 23:2 24:2 28:1 41:1 62:2 93:1 100:1 106:1 107:2 253:0
0 1:12 2:12 4:9 5:6 6:4 9:8 10:6 11:7 14:2 15:2 16:1 20:1 23:1 28:2 33:2 34:1 35:1 253:0
0 1:1 3:2 4:5 5:2 6:1 7:4 8:2 9:4 10:3 11:1 15:5 16:1 20:8 23:1 24:1 25:1 28:1 29:1 32:1 36:1 37:1 38:1 39:1 40:1 66:2 253:0
0 1:8 2:9 3:3 4:12 5:5 6:3 7:2 8:1 9:4 10:11 11:3 12:2 13:1 15:2 16:1 20:2 22:1 23:1 24:1 25:1 41:1 66:2 253:0
0 1:9 2:8 3:2 4:4 5:3 6:3 7:2 8:1 9:4 10:1 11:1 23:1 24:1 25:1 28:1 29:2 33:2 34:4 58:1 59:1 60:1 61:2 62:1 63:2 64:2 65:1 66:2 90:1 91:1 92:2 112:3 113:3 253:0
0 1:1 3:2 4:1 5:1 7:4 8:2 9:1 15:1 20:1 37:1 46:2 47:2 48:2 49:4 50:2 51:4 52:4 53:2 66:2 151:2 166:1 253:0
0 1:2 2:1 3:2 4:7 5:5 7:4 8:2 9:8 10:7 11:5 29:2 36:4 37:1 253:0
0 4:4 5:2 9:5 10:1 11:3 12:3 13:2 15:3 16:1 20:4 23:1 28:2 32:1 34:1 35:1 38:1 39:1 40:1 41:1 72:1 112:1 179:1 253:0
0 1:12 2:10 3:4 4:9 5:2 6:7 7:4 8:1 9:3 10:9 11:1 23:1 24:1 25:1 28:1 29:1 34:3 36:1 66:1 90:1 91:1 94:2 95:1 96:1 112:3 113:3 253:0
0 1:2 2:1 3:1 4:1 5:1 6:1 7:1 9:1 14:1 15:1 17:1 19:1 21:1 69:1 70:1 71:1 103:1 253:0
0 1:20 2:18 3:5 4:2 5:1 6:5 7:7 8:3 9:2 11:1 25:1 36:2 37:2 62:2 63:2 64:4 65:1 92:4 93:1 94:3 95:1 253:0
0 1:6 2:6 4:15 5:7 6:2 9:6 10:22 11:6 15:2 20:3 29:2 32:1 253:0
0 1:12 2:12 4:4 5:1 6:4 7:4 8:1 9:2 10:1 25:4 26:2 27:1 29:2 37:2 38:1 40:1 66:2 72:2 94:2 95:1 253:0
0 1:12 2:10 3:5 4:5 5:4 6:5 7:7 8:2 9:6 11:4 15:2 16:1 20:2 23:2 24:2 25:3 28:2 29:2 37:2 66:1 94:5 95:2 96:1 253:0
0 1:7 2:6 3:2 4:5 5:5 6:3 7:4 8:2 9:9 10:2 11:7 15:1 20:2 23:2 24:1 25:1 28:3 29:1 35:1 36:1 37:1 66:2 253:0
0 1:10 2:9 3:2 4:8 5:3 6:5 7:2 8:1 9:3 10:6 11:3 14:2 15:2 16:1 20:2 25:1 253:0
0 4:2 5:2 9:8 11:6 35:3 58:2 59:2 60:2 61:4 62:2 63:4 64:4 65:2 107:2 253:0
0 1:4 2:3 3:2 4:4 5:3 6:2 7:2 8:1 9:3 10:3 11:3 253:0
0 1:12 2:12 4:13 5:6 6:4 9:4 10:12 11:6 15:3 16:1 20:6 22:1 23:1 24:1 253:0
0 1:8 2:7 3:5 4:9 5:4 7:8 8:4 9:5 10:8 11:2 15:3 16:1 20:4 29:2 33:6 34:3 36:4 37:3 66:2 253:0
0 1:13 2:12 3:1 4:7 5:1 6:7 7:6 8:2 9:1 10:6 15:1 20:3 25:2 33:4 34:2 37:2 42:1 43:1 44:2 45:1 66:1 90:1 91:1 94:2 95:1 96:1 102:1 253:0
0 1:16 2:13 3:6 4:3 5:3 6:3 7:6 8:2 9:5 11:2 15:1 20:1 22:1 23:1 24:1 25:1 29:3 36:1 58:2 59:1 60:1 61:2 62:1 63:2 64:2 65:1 66:1 92:2 94:2 95:1 96:1 253:0
0 1:6 2:6 4:5 5:2 6:2 9:2 10:3 11:1 14:2 15:2 20:2 253:0
0 1:10 2:9 3:2 4:5 5:4 6:5 7:2 8:1 9:4 10:3 11:1 12:1 13:1 23:1 24:1 25:1 28:1 29:2 33:2 34:1 38:1 39:1 40:1 62:2 90:1 91:1 93:1 100:1 106:1 149:1 253:0
0 1:1 3:2 4:5 5:2 6:1 7:4 8:2 9:3 10:3 15:5 16:1 20:8 23:1 24:1 25:1 28:1 29:1 32:1 36:1 37:1 66:2 253:0
0 1:6 2:6 4:2 5:1 6:2 9:2 10:1 11:1 14:4 15:2 23:1 24:2 253:0
0 1:11 2:9 3:4 4:4 5:4 6:5 7:6 8:2 9:6 11:6 25:1 29:1 36:3 37:1 94:2 95:1 253:0
0 1:7 2:6 3:2 4:5 6:7 7:4 8:2 10:3 25:1 37:1 253:0
0 1:8 2:9 3:3 4:3 5:2 6:2 7:2 8:1 9:2 10:2 15:1 20:1 22:1 23:1 24:1 66:2 253:0
0 1:12 2:12 4:8 5:3 6:8 9:2 10:3 11:1 14:4 15:5 16:1 20:4 22:1 23:1 24:1 253:0
0 4:1 5:1 9:3 11:1 23:1 24:1 28:1 38:1 39:1 40:2 59:1 60:1 61:2 62:3 63:2 64:2 65:1 88:1 89:1 93:1 100:1 114:2 149:3 164:1 253:0
0 4:10 5:4 9:4 10:7 11:2 15:2 20:2 23:2 24:2 28:2 253:0
0 1:12 2:12 4:3 6:2 9:2 10:1 11:1 15:3 16:1 20:3 22:2 23:2 24:2 26:4 27:2 29:4 253:0
0 1:10 2:9 3:2 4:9 5:7 6:4 7:2 8:1 9:5 10:8 11:4 23:1 24:1 28:1 33:4 34:2 253:0
0 1:6 2:6 4:7 5:6 6:2 9:9 10:3 11:9 12:2 13:1 14:2 15:3 16:1 20:2 22:1 23:2 24:3 29:4 33:2 34:1 41:1 253:0
0 4:3 15:3 20:3 22:3 23:3 24:3 62:6 93:3 107:3 164:3 253:0
0 1:3 2:2 4:11 5:8 6:2 9:8 10:6 11:7 12:3 13:1 15:1 20:1 23:2 24:2 28:2 29:1 42:2 43:1 44:2 54:1 142:1 253:0
0 1:10 2:9 3:2 4:9 5:2 6:3 7:5 8:2 9:3 10:8 11:3 14:2 15:2 16:1 19:1 20:1 25:3 36:1 37:1 62:2 63:2 64:4 65:1 69:1 70:1 71:1 92:2 93:1 136:1 153:1 253:0
0 1:12 2:12 4:7 5:4 6:4 9:6 10:4 11:6 14:2 15:4 16:1 20:4 23:1 24:1 28:1 29:4 34:3 35:1 90:1 91:1 98:1 99:2 112:3 113:3 253:0
0 4:2 15:2 16:1 20:2 253:0
0 1:12 2:12 4:3 5:2 6:4 9:3 10:1 11:1 15:1 20:1 23:1 24:1 26:4 27:2 28:1 29:2 32:1 38:1 40:1 72:2 253:0
0 1:12 2:12 4:4 5:1 6:4 9:3 10:4 11:3 15:1 20:3 26:2 27:1 253:0
0 1:1 3:2 4:1 5:2 7:4 8:2 9:7 11:4 23:1 28:2 29:1 35:1 36:3 37:1 58:2 59:1 60:1 61:2 62:1 63:2 64:2 65:1 66:2 74:1 97:1 115:1 116:1 117:1 253:0
0 1:15 2:14 4:4 5:2 6:10 9:2 15:2 17:2 18:1 19:2 21:2 39:2 40:2 72:2 74:2 75:2 97:2 253:0
0 1:6 2:6 4:7 5:5 6:2 9:3 10:5 11:1 23:1 24:1 26:2 27:1 28:1 59:1 60:1 61:2 62:1 63:2 64:2 65:1 88:1 92:2 114:3 253:0
0 1:12 2:12 3:4 4:7 5:2 6:4 7:4 8:2 9:2 10:3 23:1 24:1 25:2 26:4 27:2 28:1 37:1 58:1 59:1 60:1 61:2 62:1 63:2 64:2 65:1 66:2 107:1 253:0
0 1:12 2:12 4:5 5:4 6:2 9:2 10:3 11:1 14:4 15:4 16:1 20:3 253:0
0 4:20 10:23 12:4 13:2 15:4 16:1 20:5 22:1 23:2 24:3 253:0
0 1:6 2:4 3:4 4:11 5:4 6:6 7:6 8:1 9:4 10:9 11:1 18:1 19:2 21:2 25:2 29:1 36:1 66:1 94:4 95:2 96:1 136:2 253:0
0 1:4 2:2 3:4 4:5 5:3 6:5 7:8 8:4 9:6 10:1 11:4 15:2 16:1 20:2 25:1 29:1 36:5 37:2 58:2 59:1 60:1 61:2 62:1 63:2 64:2 65:1 253:0
0 1:6 2:3 3:6 4:5 5:3 6:5 7:10 8:4 9:5 11:4 23:1 24:1 25:5 28:1 29:2 36:2 37:2 94:2 95:1 253:0
0 1:6 2:6 4:4 5:3 6:2 9:2 10:2 11:1 253:0
0 4:8 5:4 9:3 10:6 11:3 15:4 20:7 253:0
0 4:1 5:1 9:5 11:2 15:1 20:1 22:1 23:3 24:1 28:4 35:2 38:1 39:1 40:1 72:1 253:0
0 1:12 2:12 4:3 5:1 6:4 9:1 10:1 23:1 24:1 28:1 62:2 63:1 64:2 93:1 107:3 253:0
0 1:6 2:6 4:10 5:2 6:6 9:2 10:8 11:1 14:2 15:2 16:1 20:1 23:1 24:1 28:1 253:0
0 1:14 2:13 3:2 4:2 5:2 7:4 8:2 9:8 11:4 14:4 15:4 16:2 20:2 23:2 24:2 28:2 29:7 33:2 34:3 36:3 37:1 111:2 112:2 113:1 253:0
0 1:6 2:6 3:4 4:5 5:3 6:2 7:2 9:3 10:3 11:3 23:1 24:1 28:1 69:2 70:2 197:1 253:0
0 1:4 2:3 3:2 7:2 8:1 9:4 11:3 14:2 15:2 16:1 22:1 23:1 28:1 32:1 66:2 253:0
0 1:16 2:15 3:2 4:7 5:2 6:6 7:2 8:1 9:2 10:6 11:1 14:2 15:3 16:1 20:2 22:1 23:1 24:1 58:2 59:1 60:1 61:2 62:1 63:2 64:2 65:1 92:2 253:0
0 1:6 2:6 4:3 5:3 9:8 10:1 11:7 15:3 16:1 20:3 22:1 23:1 28:1 29:4 32:1 33:2 34:1 39:1 40:1 88:1 89:1 114:2 253:0
0 1:12 2:12 4:5 6:6 10:3 15:1 20:1 22:1 23:2 24:3 253:0
0 1:10 2:9 3:2 4:8 5:7 6:2 7:2 8:1 9:6 10:5 11:6 14:3 15:2 16:1 23:1 24:1 28:1 33:2 34:1 103:1 253:0
0 1:12 2:12 4:10 5:2 6:6 9:3 10:10 11:3 12:2 13:1 14:4 15:6 16:3 20:5 22:1 23:1 24:1 253:0
0 1:12 2:12 4:5 5:3 6:4 9:5 10:3 11:2 15:1 23:1 28:2 33:4 34:2 35:1 40:1 62:2 72:1 74:1 75:1 88:1 89:1 93:1 97:2 100:1 107:3 114:2 149:1 253:0
0 1:6 2:6 4:5 5:2 6:4 9:5 10:3 11:2 29:2 35:1 38:1 39:2 40:1 253:0
0 1:10 2:8 3:5 4:6 5:4 6:6 7:5 8:2 9:6 10:1 11:4 14:2 15:2 16:1 20:2 23:1 24:1 28:1 29:2 33:2 34:1 36:2 37:1 90:1 91:1 94:3 95:1 253:0
0 1:12 2:12 4:5 5:2 6:6 9:2 10:4 11:1 14:6 15:3 26:2 27:1 253:0
0 1:8 2:7 3:6 4:6 5:1 6:7 7:8 8:4 9:2 10:1 14:2 15:3 16:1 20:1 25:1 26:1 27:1 36:2 37:2 50:1 51:3 52:3 53:3 66:2 82:1 118:2 119:1 132:1 253:0
0 1:12 2:12 4:1 6:2 9:2 11:1 15:1 20:1 22:1 23:1 24:1 29:4 253:0
0 1:12 2:12 4:10 5:6 6:4 9:5 10:6 11:4 15:3 16:1 20:3 22:2 23:3 24:3 28:1 29:2 253:0
0 1:6 2:6 4:2 6:2 9:1 12:2 13:1 29:2 40:1 72:1 88:1 89:1 114:1 253:0
0 1:8 2:9 3:3 4:6 5:3 6:4 7:2 8:1 9:5 10:3 11:4 58:2 59:1 60:1 61:2 62:1 63:2 64:2 65:1 107:1 253:0
0 1:13 2:12 3:6 4:2 5:1 6:3 7:8 8:3 9:6 11:3 15:2 16:1 22:1 23:1 25:3 28:1 29:4 32:1 33:2 34:1 36:2 37:2 66:1 94:2 95:1 96:1 253:0
0 4:7 5:1 9:1 10:7 23:1 24:1 28:1 253:0
0 1:12 2:12 4:3 5:4 6:2 9:6 11:4 14:2 15:1 29:4 38:1 39:1 40:1 72:1 253:0
0 4:5 10:4 15:7 16:1 20:11 55:1 253:0
0 1:12 2:12 4:5 5:5 6:2 9:7 10:2 11:5 14:4 15:4 16:2 20:2 23:3 24:3 28:3 29:4 33:2 34:1 253:0
0 1:2 3:4 4:2 6:2 7:4 8:2 15:1 20:1 22:1 23:1 24:1 25:2 74:1 105:2 253:0
0 1:6 2:6 4:2 6:2 10:1 14:4 15:3 16:1 23:1 24:2 253:0
0 1:6 2:6 4:3 5:2 6:2 9:2 10:2 11:1 14:2 15:2 16:1 253:0
0 1:6 2:6 4:4 5:3 6:2 9:4 10:1 11:3 12:2 13:1 14:2 15:1 38:1 39:1 40:1 72:1 253:0
0 1:16 2:14 3:4 4:3 6:1 7:4 9:4 10:2 11:1 12:1 13:1 15:2 16:1 20:1 23:1 24:2 25:1 29:6 33:2 34:1 40:1 41:1 54:1 66:2 72:2 88:1 89:1 94:4 95:2 96:2 114:2 253:0
0 1:6 2:6 4:4 5:5 6:2 9:6 11:6 15:1 32:1 39:2 40:2 72:1 73:1 74:1 75:1 141:1 253:0
0 1:4 2:3 3:2 4:1 5:1 6:2 7:2 8:1 9:1 23:1 24:1 28:1 253:0
0 4:2 10:1 15:2 20:3 253:0
0 4:8 10:7 12:6 13:2 23:2 24:4 253:0
0 1:6 2:6 4:2 5:2 6:2 9:4 11:6 30:2 31:1 253:0
0 4:1 5:2 9:5 11:4 23:1 24:1 28:1 35:1 39:2 40:1 253:0
0 1:6 2:6 4:15 6:4 10:22 14:2 15:3 20:4 253:0
0 1:12 2:12 4:8 5:3 6:4 9:4 10:6 11:6 15:3 16:1 20:6 22:1 23:1 24:1 253:0
0 1:14 2:13 3:2 4:6 5:3 6:7 7:4 8:2 9:5 10:1 11:4 12:2 13:1 15:2 20:2 23:1 24:1 25:1 28:1 29:3 33:6 34:3 36:3 37:1 253:0
0 1:6 2:6 4:7 5:5 6:4 9:4 10:5 11:3 12:3 13:2 23:1 24:1 28:1 38:1 39:1 40:1 41:1 72:1 253:0
0 1:3 2:2 4:7 5:6 6:1 9:6 10:3 11:4 12:3 13:1 15:5 16:2 20:4 22:2 23:4 24:3 28:3 32:2 41:1 42:2 43:1 44:2 62:2 93:1 100:1 102:1 107:2 253:0
0 1:6 2:6 4:4 5:3 6:2 9:4 11:3 15:2 16:1 20:2 22:1 23:1 24:1 29:2 253:0
0 1:12 2:10 3:4 4:5 6:4 7:6 8:3 9:2 10:3 12:4 13:1 14:4 15:4 16:2 20:1 22:1 23:1 24:1 29:1 33:2 34:1 36:1 37:1 58:2 59:2 61:4 63:2 65:1 103:2 171:1 253:0
0 1:8 2:9 3:3 4:6 5:3 6:5 7:2 8:1 9:3 10:4 11:1 23:1 24:1 25:1 28:1 253:0
0 1:14 2:15 4:2 6:3 10:1 15:1 17:3 18:1 19:2 20:2 21:1 26:2 27:1 253:0
0 1:2 2:1 3:2 4:13 5:7 6:2 7:4 8:2 9:7 10:11 11:5 12:3 13:1 15:1 20:3 23:1 24:1 28:1 29:1 34:2 36:3 37:1 58:2 59:1 60:1 61:2 62:1 63:2 64:2 65:1 112:2 113:1 253:0
0 1:6 2:6 9:1 29:2 59:1 60:1 61:2 62:1 63:2 64:2 65:1 92:2 253:0
0 1:12 2:12 4:7 6:4 10:8 14:8 15:8 16:2 20:2 253:0
0 1:6 2:6 4:13 5:11 6:2 9:10 10:9 11:8 23:2 24:2 28:2 29:2 90:1 91:1 253:0
0 1:16 2:18 3:6 4:8 5:5 6:4 7:4 8:2 9:7 10:4 11:4 12:4 13:1 15:2 16:1 20:3 23:2 24:2 28:2 66:4 253:0
0 4:2 5:3 9:2 10:1 15:1 20:1 22:1 23:1 24:1 74:1 88:1 97:1 114:1 116:1 188:1 221:1 253:0
0 1:9 2:8 4:7 6:7 9:1 10:5 23:1 24:2 26:2 27:1 29:1 42:2 43:1 44:2 102:1 142:1 253:0
0 1:14 2:13 3:2 4:3 6:5 7:2 9:1 10:1 15:1 20:1 22:1 23:1 24:1 25:1 26:2 27:1 29:2 66:1 94:2 95:1 96:1 253:0
0 1:7 2:4 3:6 4:6 5:4 6:5 7:8 8:3 9:4 10:2 11:3 23:1 24:1 25:3 28:1 33:4 34:5 36:2 37:1 66:1 94:2 95:2 96:1 112:3 113:3 144:1 253:0
0 4:3 5:1 9:4 10:2 11:6 15:2 20:3 22:1 23:1 24:1 253:0
0 1:7 2:6 3:2 4:9 5:3 6:5 7:4 8:2 9:4 10:5 11:3 12:4 13:1 23:1 24:1 25:3 37:1 66:2 253:0
0 1:13 2:14 3:1 4:9 5:3 6:3 7:1 9:3 10:7 11:3 14:4 15:4 16:2 17:2 19:1 20:1 23:1 24:2 25:1 33:2 34:1 69:1 70:1 71:1 253:0
0 1:12 2:12 4:9 5:2 6:4 9:3 10:7 11:3 15:4 16:2 20:7 22:1 23:1 24:1 253:0
0 1:8 2:7 3:2 4:1 6:2 7:4 8:2 9:2 29:2 36:2 37:1 58:1 59:1 60:1 61:2 62:1 63:2 64:2 65:1 92:2 253:0
0 1:10 2:9 3:2 4:7 5:1 6:5 7:2 8:1 9:2 10:4 11:1 14:2 15:3 16:1 20:3 23:2 24:1 25:1 28:2 62:2 93:1 100:1 107:2 109:1 253:0
0 1:6 2:6 4:13 5:7 9:9 10:10 11:7 23:1 24:1 28:1 29:4 58:1 59:1 60:1 61:2 62:1 63:2 64:2 65:1 107:1 253:0
0 1:6 2:6 4:12 5:4 6:4 9:3 10:13 11:3 12:3 13:1 14:2 15:1 253:0
0 1:2 2:1 3:5 4:4 5:1 7:8 8:4 9:2 10:3 15:5 16:1 20:8 29:1 32:1 36:1 37:3 66:2 253:0
0 1:16 2:16 3:5 4:3 5:3 6:3 7:6 8:3 9:11 11:8 12:1 13:1 14:2 15:2 16:1 23:1 24:1 25:1 28:1 29:6 36:2 37:1 66:2 253:0
0 1:6 2:6 4:4 5:1 6:2 9:2 10:1 11:1 12:3 13:1 15:1 20:1 23:1 24:1 28:1 29:2 34:3 54:1 90:1 91:1 112:3 113:3 253:0
0 1:12 2:12 4:9 5:4 6:4 9:4 10:6 11:2 14:4 15:2 253:0
0 1:6 2:6 4:6 5:5 6:2 9:2 10:5 11:1 15:3 16:1 20:5 26:2 27:1 55:1 253:0
0 1:2 2:1 3:2 4:2 5:2 7:4 8:2 9:5 11:2 14:1 15:2 16:1 25:2 26:1 27:1 29:2 35:1 37:1 38:1 39:2 40:1 103:1 132:1 253:0
0 1:8 2:9 4:6 5:3 6:2 9:3 10:3 11:3 15:3 16:1 20:4 42:3 43:1 44:2 253:0
0 1:6 2:6 4:11 5:5 6:2 9:3 10:12 11:3 15:2 16:1 20:1 22:1 23:1 24:1 34:1 67:2 68:1 112:1 253:0
0 1:15 2:16 3:3 4:5 5:5 6:3 7:2 8:1 9:6 10:1 11:6 25:1 29:2 253:0
0 1:12 2:12 4:7 5:8 9:11 10:2 11:10 14:2 15:2 16:1 20:1 23:1 26:2 27:1 28:2 29:2 35:1 39:1 40:1 72:1 88:1 89:1 114:2 253:0
0 4:21 10:28 12:7 13:2 15:1 20:3 23:1 24:2 90:1 91:1 253:0
0 1:12 2:12 4:7 5:1 6:8 9:3 10:3 11:3 12:3 13:1 14:2 15:3 16:1 20:2 22:1 23:1 24:1 253:0
0 1:10 2:9 3:3 4:8 6:4 7:5 8:3 10:11 15:1 20:3 25:2 26:2 27:1 37:2 94:2 95:1 253:0
0 1:8 2:7 3:2 4:6 5:2 6:4 7:4 8:2 9:4 10:1 11:3 12:2 13:1 15:1 20:1 23:2 24:1 25:2 28:1 29:1 36:1 37:1 41:1 50:1 51:3 52:3 53:3 62:2 82:1 93:1 106:1 107:2 109:1 253:0
0 1:12 2:12 3:5 4:8 5:3 6:6 7:4 8:2 9:3 10:4 11:1 15:2 16:1 20:2 22:1 23:1 25:2 28:1 32:1 66:2 90:1 91:1 253:0
0 1:6 2:6 4:5 5:5 9:8 10:1 11:7 15:4 16:2 20:4 22:1 23:2 24:1 28:2 29:4 32:1 33:2 34:1 253:0
0 1:6 2:6 4:6 5:6 6:2 9:5 10:3 11:4 14:4 15:3 16:1 23:1 24:1 26:4 27:2 28:1 253:0
0 1:12 2:12 4:2 5:3 6:4 9:4 11:2 23:1 24:1 26:2 27:1 28:1 29:2 35:1 59:1 60:1 61:2 62:1 63:2 64:2 65:1 92:2 253:0
0 1:15 2:16 3:8 4:1 6:4 7:6 8:3 33:1 34:1 200:1 253:0
0 1:12 2:12 4:1 5:1 9:3 11:3 14:4 15:4 16:2 20:2 55:1 253:0
0 1:6 2:6 4:8 5:6 6:2 9:9 10:2 11:9 12:4 13:2 15:5 16:2 20:3 22:3 23:3 24:3 29:4 33:2 34:1 41:1 54:2 55:1 62:2 93:1 100:2 106:1 107:1 253:0
0 1:7 2:5 3:2 4:2 5:2 6:1 7:2 8:1 9:4 11:2 12:2 13:1 15:1 20:1 23:1 24:1 26:1 27:1 28:1 29:1 36:1 41:1 42:2 43:1 44:2 54:1 58:2 59:1 60:1 61:2 62:1 63:2 64:2 65:1 92:2 102:1 183:1 253:0
0 1:3 2:2 4:2 5:2 6:1 9:5 11:2 17:2 18:1 19:2 21:1 23:2 24:1 28:3 29:1 35:1 40:1 72:1 74:1 88:1 89:1 97:1 114:2 115:1 116:1 117:1 153:1 253:0
0 1:12 2:12 4:8 5:3 6:6 9:3 10:6 11:3 12:2 13:1 14:6 15:5 16:1 20:2 23:1 24:2 54:1 253:0
0 1:10 2:8 3:4 4:5 5:3 6:3 7:6 8:2 9:6 10:2 11:4 12:4 13:2 15:1 20:1 23:1 24:1 25:1 26:2 27:1 28:1 29:1 33:2 34:1 36:3 37:1 41:1 66:1 94:2 95:1 96:1 253:0
0 1:6 2:6 4:12 5:3 6:4 9:3 10:13 11:3 23:1 24:2 253:0
0 1:4 2:3 3:2 4:3 6:5 7:2 8:1 14:2 15:2 20:1 23:1 24:1 25:1 50:1 51:3 52:3 53:3 82:1 253:0
0 1:9 2:10 3:3 4:6 5:4 6:2 7:2 8:1 9:4 10:5 11:3 29:2 34:3 90:1 91:1 112:3 113:3 253:0
0 1:7 2:6 3:2 4:4 5:3 6:3 7:4 8:2 9:6 10:1 11:2 15:1 20:1 22:1 23:3 24:3 25:1 28:2 29:3 36:1 37:1 38:1 39:1 40:1 66:2 253:0
0 1:12 2:12 4:6 5:5 6:4 9:6 10:1 11:4 14:2 15:4 16:2 20:4 23:1 24:1 26:2 27:1 28:1 29:2 33:2 34:1 253:0
0 1:12 2:12 4:8 6:6 10:10 14:10 15:13 16:6 20:4 22:1 23:1 24:1 55:1 253:0
0 1:6 2:6 4:6 5:4 6:4 9:5 10:2 11:4 23:2 24:2 28:2 29:2 253:0
0 1:6 2:6 4:13 5:6 6:2 9:7 10:10 11:5 12:2 13:1 14:2 15:3 16:1 20:3 23:2 24:1 28:3 29:2 35:1 253:0
0 1:6 2:6 4:4 5:3 9:5 10:2 11:4 14:2 15:4 16:2 20:2 22:1 23:1 28:1 29:4 32:1 62:2 93:1 98:1 99:1 107:1 152:1 253:0
0 1:12 2:12 4:12 5:3 6:6 7:3 8:1 9:2 10:9 11:1 14:2 15:3 16:1 19:1 20:3 21:1 23:2 24:3 25:3 28:1 33:2 34:1 37:1 69:1 70:1 71:1 136:1 253:0
0 1:12 2:12 4:3 6:4 10:2 12:2 13:1 14:6 15:4 16:1 54:1 253:0
0 1:6 2:6 3:4 4:9 5:3 7:4 8:2 9:5 10:6 11:3 23:1 24:1 25:2 27:2 28:1 29:2 37:1 66:2 74:1 76:2 97:1 253:0
0 4:27 10:42 15:3 20:5 22:1 23:1 24:1 253:0
0 1:12 2:12 4:5 5:3 6:2 9:2 10:2 11:1 14:6 15:6 16:3 20:2 59:1 60:1 61:2 62:1 63:2 64:2 65:1 92:2 253:0
0 4:10 10:16 15:4 16:2 20:6 22:2 23:2 24:2 253:0
0 1:13 2:10 3:9 4:9 5:5 6:3 7:8 8:3 9:7 10:8 11:6 14:2 15:2 16:1 20:3 25:1 29:4 36:2 37:1 94:2 95:1 253:0
0 1:12 2:12 4:4 5:3 6:6 9:5 10:2 11:3 29:2 35:1 38:1 39:2 40:1 253:0
0 1:2 2:1 3:5 4:4 5:1 7:8 8:4 9:2 10:3 15:5 16:1 20:8 27:1 29:1 32:1 36:1 37:3 66:2 132:2 253:0
0 1:6 2:6 4:9 5:10 6:4 9:9 10:3 11:9 15:2 16:1 20:2 23:1 24:1 28:1 253:0
0 1:10 2:9 3:2 4:9 5:3 6:3 7:2 8:1 9:3 10:6 11:3 15:3 16:1 20:5 22:1 23:1 24:1 25:1 26:2 27:1 253:0
0 1:12 2:12 4:10 5:3 6:6 9:3 10:8 11:3 15:1 20:3 23:1 24:2 33:2 34:4 112:3 113:3 253:0
0 1:6 2:5 3:4 4:7 6:3 7:3 8:1 10:7 23:1 24:2 25:1 94:3 95:1 253:0
0 1:7 2:5 3:2 4:2 5:2 6:1 7:2 8:1 9:4 11:2 12:2 13:1 15:1 20:1 23:1 24:1 28:1 29:1 36:1 41:1 42:2 43:1 44:2 54:1 58:2 59:1 60:1 61:2 62:1 63:2 64:2 65:1 92:2 102:1 253:0
0 1:8 2:4 3:10 4:9 5:3 6:6 7:9 8:2 9:2 10:9 25:2 66:2 90:2 91:2 94:7 95:3 96:2 253:0
0 1:6 2:6 4:2 5:1 6:4 9:3 11:1 23:1 24:1 28:1 35:1 39:2 40:1 62:4 63:4 64:8 65:2 92:4 93:2 253:0
0 1:8 2:9 3:3 4:13 5:4 6:3 7:2 8:1 9:3 10:15 11:3 15:3 16:1 20:3 22:1 23:1 24:1 25:1 253:0
0 1:14 2:11 3:8 4:6 5:7 6:8 7:11 8:4 9:8 10:3 11:6 29:1 33:2 34:1 36:3 37:2 66:1 94:5 95:2 96:1 253:0
0 1:14 2:12 3:4 4:5 5:8 6:8 7:4 8:2 9:6 10:1 11:6 23:2 24:2 26:2 27:1 28:2 35:1 253:0
0 1:13 2:11 3:4 4:6 5:5 6:7 7:4 8:2 9:4 10:2 11:2 15:1 20:1 23:1 24:1 25:1 26:4 27:2 28:1 29:1 36:1 253:0
0 4:15 10:20 15:6 16:2 20:10 22:1 23:1 24:1 55:2 226:2 227:1 253:0
0 1:4 2:3 3:2 4:13 5:12 6:3 7:2 8:1 9:12 10:6 11:10 12:3 13:2 14:2 15:2 16:1 20:1 23:2 24:2 25:1 28:2 35:1 38:1 40:1 41:3 72:1 253:0
0 4:23 10:33 12:3 13:1 15:2 16:1 20:3 22:1 23:2 24:3 253:0
0 1:6 2:6 4:9 6:4 10:8 12:3 13:1 15:2 16:1 20:4 23:2 24:4 54:1 253:0
0 1:6 2:6 4:5 5:2 6:2 9:5 10:2 11:4 15:2 16:1 20:2 22:1 23:1 24:1 29:2 253:0
0 1:9 2:10 3:7 4:5 5:1 7:6 8:3 9:2 10:3 15:3 16:1 20:5 25:2 29:1 36:1 37:1 66:2 253:0
0 1:14 2:13 3:2 4:3 6:5 7:2 9:3 10:1 11:1 14:2 15:2 16:1 25:1 26:2 27:1 29:5 33:2 34:1 36:1 38:1 40:1 72:2 94:2 95:1 253:0
0 1:6 2:6 4:11 5:5 6:4 9:5 10:10 11:4 23:1 24:1 28:1 33:2 34:2 112:3 253:0
0 1:6 2:6 4:4 5:1 6:2 9:3 10:2 11:1 23:1 28:2 35:1 58:1 59:1 60:1 61:2 62:1 63:2 64:2 65:1 92:2 253:0
0 1:12 2:12 4:9 5:4 6:4 9:5 10:7 11:2 14:2 15:2 16:1 23:2 24:1 26:2 27:1 28:3 35:1 58:1 59:1 60:1 61:2 62:1 63:2 64:2 65:1 92:2 253:0
0 1:12 2:12 4:8 5:4 6:4 9:3 10:7 11:3 14:2 15:3 20:5 253:0
0 1:4 2:3 3:2 4:2 6:2 7:2 8:1 10:1 15:1 20:1 46:2 47:2 48:2 49:4 50:2 51:4 52:4 53:2 151:2 166:1 253:0
0 4:1 5:1 9:1 23:1 24:1 28:1 74:1 97:1 253:0
0 1:15 2:13 3:5 4:6 5:1 6:8 7:4 8:3 9:2 10:2 11:1 23:2 24:3 25:2 28:1 29:1 42:1 44:1 90:1 91:1 142:1 174:1 175:1 176:1 253:0
0 1:12 2:12 4:6 6:10 10:2 14:4 15:3 16:1 20:1 22:1 23:2 24:3 253:0
0 1:12 2:12 4:7 5:4 6:8 9:3 10:3 11:3 15:2 20:1 23:1 24:1 28:1 40:1 72:2 73:1 74:1 75:1 253:0
0 1:8 2:7 3:2 4:12 5:8 6:5 7:4 8:2 9:8 10:9 11:7 15:1 20:2 23:1 24:1 25:1 26:2 27:1 28:1 29:1 36:1 37:1 253:0
0 1:2 2:1 3:5 4:2 5:1 7:8 8:4 9:2 10:1 15:2 16:1 20:2 29:1 36:1 37:3 47:1 48:1 49:2 50:1 51:2 52:2 53:1 66:2 151:1 253:0
0 4:6 5:2 9:5 10:4 11:4 12:4 13:2 15:3 16:1 20:5 23:2 24:1 28:3 32:1 35:1 41:1 118:1 119:1 253:0
0 1:12 2:12 4:8 5:6 6:2 9:6 10:5 11:6 23:1 24:1 28:1 29:2 253:0
0 1:2 2:1 3:5 4:4 5:1 7:8 8:4 9:2 10:3 14:1 15:5 16:2 20:4 32:1 36:2 37:3 66:2 103:1 253:0
0 1:2 2:1 3:2 4:6 5:4 7:4 8:2 9:6 10:5 11:4 25:2 29:2 36:2 37:1 253:0
0 1:12 2:12 4:11 5:7 6:4 9:6 10:10 11:6 15:2 16:1 20:2 23:1 24:1 28:1 253:0
0 4:8 5:1 9:4 10:6 11:6 15:2 16:1 20:2 22:1 23:1 24:1 62:2 107:3 139:2 140:1 253:0
0 1:14 2:16 4:3 5:1 6:1 9:2 10:2 11:1 14:2 15:2 16:1 20:2 42:2 43:1 44:2 102:1 253:0
0 1:12 2:12 4:3 5:2 6:4 9:4 10:1 11:3 23:1 24:1 26:2 27:1 28:1 29:2 33:2 34:1 38:1 40:1 72:2 253:0
0 1:14 2:15 3:3 4:6 5:3 6:7 7:2 8:1 9:4 10:2 11:3 25:1 66:2 253:0
0 1:12 2:11 3:6 4:4 5:6 6:1 7:8 8:3 9:7 11:6 14:2 15:2 16:1 23:1 24:1 25:3 26:2 27:1 28:1 29:2 37:2 66:1 94:2 95:1 96:1 253:0
0 4:7 5:7 9:5 10:6 11:4 12:1 13:1 23:2 24:2 28:2 253:0
0 1:9 2:6 3:4 4:10 5:3 6:8 7:4 8:1 9:4 10:6 11:3 15:3 16:1 20:5 25:1 26:1 27:1 29:1 34:2 36:1 42:2 43:1 44:2 66:1 94:2 95:1 96:1 102:1 112:4 113:1 183:1 253:0
0 1:12 2:12 4:7 5:2 6:8 7:2 9:2 10:2 11:1 15:1 18:1 19:2 20:2 21:2 25:2 26:2 27:1 29:2 90:2 91:2 94:2 95:1 136:2 253:0
0 4:6 5:2 9:4 10:4 11:3 12:2 13:1 15:6 16:2 20:8 23:1 24:1 28:1 32:2 38:1 39:1 40:1 41:1 141:1 253:0
0 1:10 2:10 3:2 4:4 5:4 6:4 7:4 8:2 9:5 11:4 25:1 33:2 34:1 36:2 37:1 42:2 43:1 44:2 45:1 102:1 253:0
0 1:6 2:6 4:7 5:1 6:2 9:4 10:5 11:3 12:5 13:2 23:2 24:3 28:1 29:2 74:1 97:1 253:0
0 1:12 2:12 4:6 5:2 6:2 9:3 10:6 11:1 14:2 15:3 16:1 20:2 22:2 23:3 24:3 28:1 29:2 58:1 59:1 60:1 61:2 62:1 63:2 64:2 65:1 92:2 253:0
0 1:6 2:6 4:4 5:3 6:2 9:2 10:2 11:1 14:4 15:3 20:2 253:0
0 4:1 5:1 9:4 11:3 15:1 20:1 22:1 23:1 24:1 35:1 39:2 40:1 253:0
0 1:2 2:1 3:2 4:14 5:8 7:4 8:2 9:10 10:12 11:7 15:2 16:1 20:2 23:2 24:1 25:2 28:2 29:2 33:2 34:1 36:2 37:1 74:1 88:1 97:2 114:2 253:0
0 1:6 2:6 4:1 6:2 15:1 20:1 253:0
0 1:4 2:3 3:2 4:5 5:3 6:1 7:2 8:1 9:2 10:3 11:1 14:2 15:2 16:1 20:1 25:1 253:0
0 1:6 2:6 4:12 5:3 6:4 9:3 10:16 11:3 14:4 15:4 16:2 20:2 23:1 24:2 253:0
0 1:6 2:4 3:4 4:7 5:5 7:6 8:3 9:7 10:5 11:5 12:3 13:2 14:2 15:2 16:1 23:1 24:1 28:1 29:3 34:2 36:3 37:1 41:1 111:2 113:1 253:0
0 4:5 5:2 9:5 10:3 11:3 12:1 13:1 15:2 20:3 23:1 28:2 35:1 38:1 39:1 40:1 41:1 62:2 72:1 93:1 100:1 107:3 253:0
0 1:12 2:12 4:8 5:2 6:6 9:3 10:6 11:3 12:2 13:1 14:6 15:5 16:1 20:3 23:1 24:2 26:2 27:1 54:1 253:0
0 1:12 2:12 4:3 5:1 9:4 10:3 11:3 14:2 15:2 16:1 20:3 23:1 24:1 28:1 29:6 33:2 34:1 58:1 59:1 60:1 61:2 62:1 63:2 64:2 65:1 253:0
0 1:11 2:11 3:9 4:4 5:3 6:3 7:8 8:3 9:4 11:3 23:1 24:1 25:3 28:1 29:1 36:1 37:1 94:2 95:1 253:0
0 1:11 2:14 4:3 5:3 6:2 9:3 10:1 11:1 38:1 39:1 40:1 72:1 253:0
0 1:12 2:12 3:4 4:9 5:4 6:8 7:4 8:2 9:3 10:7 11:3 23:1 24:1 28:1 37:1 90:1 91:1 253:0
0 1:6 2:6 4:6 5:4 9:8 10:7 11:7 15:6 16:3 20:4 22:2 23:2 28:2 29:4 32:2 33:2 34:1 253:0
0 1:9 2:10 3:3 7:2 8:1 14:2 15:1 30:4 31:2 253:0
0 1:12 2:12 4:10 5:3 6:6 9:3 10:5 11:3 12:3 13:1 14:2 15:4 16:2 20:3 22:1 23:2 24:3 54:1 253:0
0 1:6 2:6 4:6 5:2 6:2 9:4 10:4 11:1 23:1 28:2 35:1 58:1 59:1 60:1 61:2 62:1 63:2 64:2 65:1 88:1 92:2 114:3 253:0
0 1:7 2:6 3:2 4:2 5:3 7:4 8:2 9:7 11:4 15:1 20:1 22:1 23:3 24:3 28:2 29:8 37:1 66:2 74:1 97:1 115:1 116:1 117:1 253:0
0 1:12 2:12 4:15 5:4 6:8 9:4 10:15 11:2 14:2 15:3 16:1 20:2 22:1 23:3 24:3 28:2 29:2 90:1 91:1 253:0
0 240:1 253:0
0 50:2 51:6 52:6 53:6 168:1 253:0
0 1:12 2:12 4:2 6:4 14:4 15:4 16:1 20:2 22:2 23:2 24:2 253:0
0 1:6 2:6 4:7 5:4 6:2 9:5 10:6 11:4 15:2 16:1 20:3 22:1 23:1 28:1 32:1 253:0
0 1:6 2:6 4:7 5:3 6:2 9:3 10:6 11:3 62:2 63:2 64:4 65:1 92:2 93:1 253:0
0 1:12 2:12 3:2 4:5 6:2 7:2 8:1 14:2 15:9 16:4 20:8 25:1 42:2 43:1 44:2 45:1 102:1 253:0
0 1:12 2:12 4:8 5:6 6:4 9:4 10:7 11:3 23:1 24:1 28:1 33:4 34:3 90:1 91:1 112:2 253:0
0 1:13 2:12 3:1 4:4 5:3 6:5 7:2 8:1 9:4 11:2 23:2 24:2 25:1 28:2 29:2 34:3 42:1 43:1 44:2 45:1 62:2 63:2 64:4 65:1 92:4 93:1 102:2 112:3 113:3 253:0
0 4:6 5:2 9:5 10:5 11:3 12:1 13:1 15:4 16:1 20:6 23:1 28:2 32:1 35:1 38:1 39:1 40:1 41:1 72:1 90:1 91:1 253:0
0 15:1 74:1 75:1 253:0
0 1:4 2:3 3:2 4:15 5:5 6:2 7:2 8:1 9:5 10:13 11:4 15:1 20:1 22:1 23:2 24:2 28:1 29:1 36:1 62:2 92:1 93:1 107:1 110:1 253:0
0 50:1 51:3 52:3 53:3 253:0
0 1:12 2:10 3:4 4:9 5:4 6:6 7:6 8:3 9:3 10:7 11:3 14:1 15:2 16:1 20:2 23:1 24:1 25:2 28:1 33:2 34:4 37:1 103:1 112:3 113:3 253:0
0 4:5 5:2 9:5 10:3 11:4 12:1 13:1 15:5 16:1 20:8 23:2 24:1 28:3 32:1 35:1 41:1 253:0
0 1:6 2:6 4:10 5:3 6:2 9:3 10:10 11:3 15:3 16:1 20:3 23:1 24:2 253:0
0 1:4 2:3 3:2 4:1 6:2 7:2 8:1 15:1 20:1 253:0
0 1:24 2:24 33:2 34:1 47:4 150:6 160:8 253:0
0 1:6 2:6 4:11 5:4 6:4 9:6 10:8 11:6 12:2 13:1 15:2 20:3 22:1 23:2 24:3 29:4 33:2 34:1 41:1 253:0
0 1:7 2:6 3:6 4:5 5:3 6:2 7:4 8:2 9:3 10:3 11:3 23:1 24:1 28:1 253:0
0 1:14 2:13 3:2 4:5 5:7 6:6 7:4 8:2 9:11 11:10 23:3 24:2 28:4 29:2 33:4 34:2 35:1 36:2 37:1 253:0
0 241:1 253:0
0 1:11 2:8 3:6 4:10 5:5 6:8 7:6 8:2 9:6 10:5 11:6 15:1 20:3 25:2 29:2 36:2 94:2 95:1 253:0
0 1:12 2:12 4:8 5:1 6:4 9:3 10:8 11:3 15:2 16:1 20:4 22:1 23:1 24:1 253:0
0 1:12 2:12 4:5 5:2 6:8 9:3 11:1 14:6 15:7 16:3 20:2 23:1 24:1 28:1 29:2 38:1 39:1 40:1 72:1 253:0
0 1:8 2:7 3:2 4:7 5:2 6:3 7:4 8:2 9:4 10:5 11:2 15:2 16:1 20:2 23:1 24:1 25:1 26:4 27:2 28:1 29:2 34:3 36:2 37:1 112:3 113:3 253:0
0 1:6 2:6 4:5 5:3 6:2 9:3 10:3 11:1 14:2 15:2 16:1 20:1 38:1 39:1 40:1 72:1 253:0
0 1:6 2:6 4:9 5:6 6:4 9:6 10:5 11:4 14:2 15:4 16:2 20:2 23:1 24:1 26:2 27:1 28:1 29:2 253:0
0 4:5 5:4 9:3 10:3 11:3 15:2 20:3 22:1 23:2 24:2 28:1 253:0
0 1:12 2:12 3:4 4:13 5:4 6:4 7:4 8:2 9:4 10:12 11:3 15:3 16:1 20:3 22:1 23:1 24:1 25:2 37:1 66:2 253:0
0 4:3 5:1 9:4 11:6 15:2 20:2 50:1 51:2 52:2 53:1 62:1 82:2 107:1 145:1 146:1 147:2 148:1 253:0
0 1:1 3:2 4:5 7:4 8:2 9:2 10:2 12:3 13:1 15:2 16:1 20:2 22:1 23:2 24:3 25:2 29:1 36:1 37:1 66:2 74:1 97:1 115:1 116:1 117:1 253:0
0 1:6 2:6 4:2 5:1 6:2 9:1 10:1 14:2 15:2 20:2 253:0
0 1:6 2:6 4:9 5:2 6:2 9:2 10:7 11:1 12:2 13:1 14:4 15:3 16:1 23:1 24:1 28:1 253:0
0 1:16 2:15 3:3 4:3 5:5 7:4 8:2 9:10 11:8 12:1 13:1 14:3 15:2 16:1 17:3 18:1 19:2 23:1 24:1 28:1 29:6 36:2 37:1 103:1 253:0
0 1:12 2:12 4:4 5:1 6:6 9:2 10:1 11:1 12:2 13:1 23:1 24:2 29:2 33:4 34:2 41:1 62:2 63:2 64:4 65:1 90:1 91:1 92:2 93:1 253:0
0 4:2 5:3 9:6 11:4 23:2 24:1 27:1 28:3 35:1 76:1 88:1 114:2 116:1 188:1 253:0
0 1:6 2:6 4:11 5:5 6:2 9:7 10:11 11:9 15:1 20:3 253:0
0 1:7 2:6 3:2 4:8 5:6 6:2 7:2 9:7 10:6 11:4 14:2 15:2 16:1 23:1 24:1 26:2 27:1 28:1 29:2 66:1 94:2 95:2 96:1 144:1 253:0
0 4:23 10:35 12:5 13:2 15:3 20:6 23:2 24:4 34:1 50:1 51:3 52:3 53:3 82:1 112:3 253:0
0 1:13 2:12 3:2 4:6 5:2 6:4 7:4 8:2 9:2 10:7 23:1 24:1 25:2 28:1 37:1 66:2 253:0
0 1:9 2:8 3:2 7:2 9:2 14:1 15:2 16:1 29:4 66:1 94:2 95:1 96:1 103:1 253:0
0 1:9 2:10 3:3 4:9 5:3 6:3 7:2 8:1 9:4 10:6 11:3 12:6 13:2 15:3 16:1 20:5 22:1 23:2 24:2 25:1 28:1 29:2 41:1 74:1 97:1 115:1 116:1 117:1 253:0
0 1:13 2:12 3:2 4:8 5:1 6:9 7:6 8:2 9:1 10:3 15:1 20:1 25:5 26:1 27:1 37:2 66:2 94:2 95:3 132:1 144:2 253:0
0 1:12 2:12 4:9 5:3 6:4 9:4 10:9 11:6 15:3 16:1 20:6 22:1 23:1 24:1 253:0
0 1:2 2:1 3:2 4:11 5:8 7:4 8:2 9:9 10:10 11:9 23:2 24:2 28:2 36:2 37:1 253:0
0 1:10 2:8 3:5 4:5 5:4 6:4 7:5 8:2 9:4 10:2 11:2 14:2 15:2 16:1 20:2 23:1 24:1 28:1 29:1 33:2 34:1 36:1 37:1 94:3 95:1 253:0
0 1:12 2:12 4:4 5:1 6:2 9:2 10:2 11:1 14:4 15:3 16:1 20:1 22:1 23:1 24:1 29:2 59:1 60:1 61:2 62:1 63:2 64:2 65:1 92:2 253:0
0 1:2 2:1 3:2 4:1 5:1 7:8 8:3 9:4 11:1 29:2 30:2 31:1 36:4 37:3 66:1 94:2 95:1 96:1 118:1 119:1 253:0
0 1:12 2:12 4:2 6:4 12:2 13:1 14:12 15:10 16:4 50:2 51:6 52:6 53:6 82:2 253:0
0 1:6 2:6 4:4 5:1 6:2 9:3 10:4 11:1 23:2 24:1 28:3 35:1 253:0
0 1:11 2:9 3:4 4:9 5:3 6:6 7:10 8:4 9:4 10:6 11:1 23:1 24:1 25:4 28:1 29:3 33:2 34:1 36:1 37:3 66:4 94:2 95:1 253:0
0 4:5 10:4 15:6 16:2 20:10 74:4 75:2 116:2 117:4 159:2 253:0
0 4:3 5:2 9:2 10:1 11:1 23:1 24:1 28:1 62:1 63:2 64:2 65:1 84:1 85:1 86:2 107:1 253:0
0 1:12 2:12 3:4 4:4 5:3 6:2 7:4 8:2 9:5 10:2 11:4 14:2 15:2 16:1 20:1 23:1 28:2 29:2 35:1 37:1 253:0
0 4:22 10:32 12:5 13:2 15:7 16:3 20:7 22:3 23:3 24:3 27:1 55:1 229:1 253:0
0 1:8 2:6 3:4 4:13 5:1 6:8 7:4 8:2 9:1 10:11 15:1 20:1 22:1 23:2 24:2 25:4 28:1 253:0
0 1:7 2:5 3:2 4:7 5:7 6:1 7:2 8:1 9:6 10:3 11:4 12:3 13:1 15:1 20:1 22:1 23:3 24:3 28:2 41:1 42:2 43:1 44:2 62:2 66:2 93:1 100:1 102:1 107:2 253:0
0 1:12 2:12 4:5 6:6 10:4 15:1 20:1 22:1 23:2 24:3 253:0
0 1:6 2:6 4:8 5:6 6:2 9:8 10:5 11:7 12:2 13:1 15:1 20:1 22:1 23:2 24:3 29:4 33:2 34:1 41:1 253:0
0 1:15 2:16 3:3 4:4 5:3 6:2 7:2 8:1 9:5 10:3 11:2 14:6 15:4 16:2 23:2 24:1 26:2 27:1 28:3 29:2 35:1 253:0
0 4:9 10:6 12:2 13:1 15:4 16:2 20:4 23:2 24:4 54:2 253:0
0 1:8 2:6 3:8 4:5 5:3 6:7 7:8 8:4 9:3 11:1 14:1 15:3 16:1 20:1 23:1 24:1 25:1 28:1 37:1 66:2 103:1 253:0
0 1:10 2:8 3:5 4:7 5:7 6:4 7:5 8:2 9:5 10:4 11:4 14:4 15:4 16:2 20:2 23:1 24:1 28:1 29:1 33:2 34:3 36:1 37:1 94:3 95:1 112:2 113:1 253:0
0 1:12 2:12 9:1 14:2 15:2 16:1 29:2 33:12 34:6 58:1 59:1 60:1 61:2 62:1 63:2 64:2 65:1 92:2 253:0
0 1:12 2:12 3:2 4:9 5:7 6:3 7:2 8:1 9:5 10:8 11:4 17:3 18:1 19:2 21:1 23:1 24:1 28:1 253:0
0 4:6 5:2 9:5 10:4 11:4 12:3 13:2 15:4 16:1 20:6 23:2 24:1 28:3 31:1 32:1 35:1 41:1 173:1 253:0
0 4:5 5:3 9:3 11:3 12:2 13:1 15:4 16:2 20:3 22:2 23:3 24:3 28:1 253:0
0 1:9 2:7 3:3 4:9 5:3 6:7 7:6 8:3 9:2 10:3 11:1 14:2 15:4 16:2 20:4 23:1 24:1 25:3 28:1 34:3 37:1 42:1 43:1 44:2 45:1 102:2 112:3 113:3 253:0
0 4:6 5:6 9:4 10:4 11:1 15:1 20:1 22:1 23:3 24:3 28:2 253:0
0 4:4 5:2 9:1 10:3 15:2 20:2 22:2 23:2 24:2 253:0
0 4:9 5:2 9:4 10:12 11:2 23:3 24:2 28:4 35:1 253:0
0 1:15 2:14 4:10 5:1 6:8 9:3 10:6 11:1 14:2 15:2 17:2 18:1 19:2 20:1 21:2 22:1 23:2 24:2 28:1 29:4 40:2 72:4 88:2 89:2 114:3 253:0
0 4:5 5:1 9:1 10:3 46:2 47:2 48:2 49:2 50:1 51:1 52:1 150:1 253:0
0 1:6 2:6 3:4 4:7 5:4 7:4 8:2 9:4 10:6 11:1 25:2 29:2 30:4 31:2 37:1 66:2 74:1 97:1 115:1 116:1 117:1 253:0
0 4:7 5:6 9:4 10:4 11:2 15:2 20:2 253:0
0 4:7 5:2 9:2 10:9 11:1 23:2 24:2 28:2 253:0
0 1:6 2:6 4:12 5:3 6:8 9:3 10:4 11:3 12:3 13:1 14:4 15:9 16:4 20:6 22:2 23:2 24:2 253:0
0 1:12 2:11 3:6 4:7 5:5 6:7 7:4 8:2 9:4 10:3 11:3 23:1 24:1 25:1 28:1 33:2 34:1 66:2 90:1 91:1 253:0
0 1:10 2:9 3:2 4:3 5:4 6:2 7:2 8:1 9:6 11:3 12:2 13:1 23:2 24:2 28:2 29:2 41:2 88:1 114:4 253:0
0 1:6 2:6 4:10 5:3 6:2 7:2 9:3 10:12 11:3 15:2 16:1 20:2 25:1 43:1 44:2 45:2 94:2 95:1 102:1 103:1 155:1 253:0
0 1:14 2:13 3:2 4:6 5:4 6:5 7:2 9:6 10:1 11:3 12:2 13:1 23:2 24:2 25:1 28:2 29:4 34:3 38:1 40:1 41:2 66:1 72:2 90:1 91:1 94:2 95:1 96:1 112:3 113:3 253:0
0 1:9 2:8 4:6 5:4 6:5 9:3 10:2 11:3 14:1 15:4 16:2 20:2 22:2 23:2 24:2 26:2 27:1 42:2 43:1 44:2 102:1 155:1 253:0
0 1:12 2:12 4:2 6:4 7:6 8:3 9:2 11:1 14:2 15:2 16:1 25:2 29:2 33:2 34:1 36:2 37:3 62:2 63:1 64:2 93:1 107:1 210:2 211:1 212:1 253:0
0 1:12 2:12 4:2 6:4 12:2 13:1 14:6 15:3 253:0
0 4:8 5:4 9:4 10:7 11:2 15:1 20:1 22:1 23:2 24:1 28:2 35:1 62:2 93:1 107:3 253:0
0 1:12 2:10 3:4 4:9 5:5 6:5 7:6 8:3 9:8 10:6 11:7 14:2 15:2 16:1 20:1 25:1 29:3 33:4 34:2 36:3 37:1 253:0
0 1:16 2:15 3:2 4:2 6:6 7:2 8:1 9:2 11:1 14:2 15:3 16:1 20:1 22:1 23:1 24:1 29:3 33:4 34:2 36:1 253:0
0 1:1 3:1 4:7 5:3 6:2 7:2 8:1 9:3 10:5 11:1 25:1 36:1 42:1 43:1 44:2 45:1 102:1 142:1 253:0
0 1:1 3:2 4:6 5:4 7:4 8:2 9:5 10:4 11:3 15:1 20:2 36:2 37:1 66:2 74:1 97:1 115:1 116:1 117:1 253:0
0 1:6 2:6 4:9 5:3 6:4 9:3 10:7 11:3 23:1 24:2 253:0
0 1:6 2:6 4:5 5:3 6:2 9:7 10:1 11:6 12:4 13:2 14:2 15:2 16:1 20:1 23:2 24:1 26:2 27:1 28:3 34:3 35:1 39:1 40:1 41:1 54:1 72:1 88:1 89:1 90:1 91:1 112:3 113:3 114:1 253:0
0 1:9 2:10 3:7 4:5 5:2 7:6 8:3 9:3 10:3 25:2 29:1 36:1 37:1 58:1 59:1 60:1 61:2 62:1 63:2 64:2 65:1 66:2 253:0
0 1:12 2:12 4:4 5:1 6:4 9:4 10:2 11:6 15:2 16:1 20:3 253:0
0 1:6 2:6 4:22 6:2 9:3 10:30 11:3 12:7 13:2 15:1 20:3 23:2 24:4 29:2 253:0
0 1:12 2:12 4:10 5:6 6:4 9:6 10:10 11:6 15:2 16:1 20:2 23:1 24:1 28:1 253:0
0 1:12 2:12 4:8 5:6 6:4 9:6 10:4 11:6 29:2 253:0
0 1:15 2:16 3:3 4:2 6:5 7:2 8:1 14:2 15:2 20:1 22:1 23:1 24:1 25:1 26:2 27:1 253:0
0 1:12 2:12 4:10 6:6 10:8 14:2 15:10 16:3 20:16 26:2 27:1 55:1 253:0
0 1:13 2:12 3:1 4:7 5:4 6:6 7:2 8:1 9:3 10:3 11:1 17:1 18:1 19:2 21:2 23:3 24:4 25:2 28:2 33:2 34:1 136:1 253:0
0 4:5 5:2 9:5 10:3 11:3 12:1 13:1 15:3 20:5 23:1 28:2 35:1 38:1 39:1 40:1 41:1 62:2 72:1 93:1 100:1 107:3 253:0
0 1:6 2:6 4:6 5:4 6:2 9:3 10:3 11:1 14:2 15:3 16:1 20:3 23:1 24:1 28:1 253:0
0 1:12 2:12 4:6 5:1 6:6 9:2 10:4 11:1 14:4 15:3 16:1 20:1 23:1 24:1 26:4 27:2 28:1 253:0
0 1:6 2:6 4:3 5:2 6:2 9:2 10:2 11:1 253:0
0 1:10 2:9 3:2 4:6 5:7 6:3 7:2 8:1 9:11 10:1 11:8 23:2 24:2 25:1 28:2 29:6 33:3 34:2 38:1 40:1 72:2 200:1 253:0
0 1:6 2:6 4:5 5:2 9:6 10:2 11:4 12:5 13:2 15:2 20:2 23:2 24:2 28:2 29:2 33:2 34:1 35:1 41:2 67:2 68:1 74:1 75:1 97:1 253:0
0 1:6 2:6 4:4 5:3 6:2 9:2 10:2 11:1 15:2 20:3 23:1 24:1 27:2 28:1 62:2 63:2 64:4 65:1 76:2 92:2 93:1 104:1 253:0
0 1:6 2:6 4:6 5:6 6:4 9:6 10:3 11:4 23:3 24:3 28:3 29:2 253:0
0 4:2 5:1 9:2 10:1 11:1 23:1 28:1 46:1 47:1 48:1 49:2 50:1 51:2 52:2 53:1 74:1 97:2 253:0
0 4:15 10:12 12:4 13:2 15:2 20:3 22:1 23:1 24:1 253:0
0 1:6 2:6 4:3 5:2 6:2 9:2 11:1 12:2 13:1 15:1 20:1 23:1 24:1 28:1 253:0
0 1:10 2:9 3:2 4:9 5:2 6:3 7:2 8:1 9:3 10:10 11:1 14:2 15:4 16:2 20:5 23:2 24:2 25:1 28:2 29:2 33:4 34:5 112:3 113:3 253:0
0 1:6 2:6 4:9 5:3 6:2 9:4 10:7 11:6 15:2 16:1 20:2 22:1 23:1 24:1 253:0
0 1:4 2:3 3:2 4:5 5:4 6:1 7:8 8:4 9:4 10:2 11:2 25:3 26:1 27:1 34:6 36:4 37:3 112:6 113:6 132:1 253:0
0 1:10 2:10 3:3 4:4 5:2 6:1 7:4 8:2 9:3 10:1 11:1 12:3 13:1 14:2 15:2 16:1 23:2 24:2 25:2 28:2 29:1 36:1 37:1 42:2 43:1 44:2 88:1 102:1 114:3 253:0
0 1:7 2:6 3:2 4:3 5:3 6:2 7:7 8:3 9:6 10:1 11:4 14:4 15:4 16:2 36:3 37:2 44:1 45:1 55:1 66:2 142:1 174:1 175:1 176:1 253:0
0 1:6 2:6 4:8 5:8 6:2 9:6 10:3 11:4 12:3 13:1 15:3 16:1 20:3 22:2 23:4 24:4 28:2 41:1 62:2 93:1 100:1 107:2 253:0
0 1:6 2:6 4:5 5:3 6:2 9:2 10:3 11:1 90:1 91:1 253:0
0 62:1 63:2 64:2 65:1 68:1 84:1 85:1 86:2 215:1 253:0
0 1:13 2:12 3:1 4:2 5:1 6:4 7:2 8:1 9:3 11:1 15:1 20:1 22:1 23:2 24:2 28:1 29:2 36:1 42:1 43:1 44:2 45:1 58:1 59:1 60:1 61:2 62:1 63:2 64:2 65:1 92:2 142:1 253:0
0 1:6 2:6 4:2 5:2 6:2 9:1 10:1 88:1 114:1 253:0
0 1:6 2:6 4:1 14:2 15:2 16:1 20:1 26:6 27:3 68:1 118:1 119:1 204:1 253:0
0 1:12 2:12 4:7 6:6 10:4 12:7 13:2 15:1 20:1 22:1 23:1 24:1 33:2 34:1 62:2 63:1 64:2 92:2 93:1 253:0
0 1:8 2:7 3:10 4:9 5:6 6:2 7:10 8:4 9:8 10:6 11:4 23:1 24:1 25:2 28:1 29:2 36:2 37:2 66:5 94:2 95:1 96:1 253:0
0 1:8 2:9 3:3 4:5 5:1 6:2 7:2 8:1 9:3 10:3 11:1 14:2 15:2 16:1 35:1 39:2 40:2 72:1 88:1 89:1 114:1 253:0
0 4:24 10:35 12:3 13:1 15:4 16:1 20:7 22:1 23:3 24:5 253:0
0 1:12 2:12 4:6 6:4 10:3 14:4 15:6 16:2 20:5 22:1 23:1 24:1 62:1 63:2 64:2 65:1 83:1 84:1 85:1 86:2 253:0
0 1:9 2:9 3:4 4:6 5:5 6:3 7:6 8:2 9:5 10:2 11:3 12:1 13:1 14:4 15:4 16:2 23:1 24:1 25:1 28:1 29:1 36:1 37:2 66:1 94:2 95:1 96:1 118:2 119:1 253:0
0 1:12 2:12 3:2 4:2 5:1 6:2 7:2 8:1 9:3 11:1 15:2 20:2 23:1 24:1 28:1 29:4 33:4 34:2 42:2 43:1 44:2 45:1 67:2 68:1 74:1 75:1 97:1 253:0
0 1:7 2:4 3:5 4:11 5:8 6:5 7:8 8:4 9:10 10:5 11:8 25:2 29:1 33:2 34:1 36:4 37:1 42:1 43:1 44:2 45:1 102:1 142:1 253:0
0 1:11 2:14 4:4 6:2 10:3 14:2 15:4 16:2 20:2 22:1 23:1 24:1 62:2 63:2 64:4 65:1 93:1 107:1 253:0
0 1:13 2:12 3:1 4:5 5:5 6:4 7:2 8:1 9:7 10:2 11:6 29:3 33:2 34:1 36:1 42:1 43:1 44:2 45:1 58:1 59:1 60:1 61:2 62:1 63:2 64:2 65:1 92:2 253:0
0 1:9 2:10 3:3 4:3 6:1 7:2 8:1 9:1 10:3 15:1 20:3 25:1 26:2 27:1 29:2 253:0
0 1:12 2:12 4:5 5:1 6:6 9:3 10:4 11:3 253:0
0 1:6 2:6 4:4 5:4 6:2 9:5 10:4 11:4 23:2 24:1 28:3 35:1 253:0
0 1:14 2:13 3:2 4:10 5:7 6:5 7:2 9:7 10:7 11:4 12:1 13:1 14:4 15:2 16:1 23:2 24:2 25:1 28:2 29:1 36:1 66:1 94:2 95:1 96:1 253:0
0 1:14 2:13 3:2 4:4 5:1 6:2 7:4 8:2 9:5 10:1 11:2 14:2 15:2 16:1 20:1 23:1 24:1 28:1 29:5 33:2 34:1 36:3 37:1 58:1 59:1 60:1 61:2 62:1 63:2 64:2 65:1 92:2 118:1 119:1 253:0
0 1:12 2:12 4:2 5:4 9:8 11:4 14:2 15:1 23:1 26:4 27:2 28:2 29:4 33:2 34:1 35:1 58:2 59:1 60:1 61:2 62:1 63:2 64:2 65:1 92:2 253:0
0 1:12 2:12 4:7 5:1 6:4 9:3 10:9 11:3 23:1 24:2 253:0
0 1:13 2:12 3:7 4:6 5:4 6:4 7:8 8:3 9:8 10:3 11:5 25:2 29:3 33:2 34:1 36:3 37:1 66:1 94:2 95:1 96:1 253:0
0 1:4 2:3 3:2 4:8 5:3 6:1 7:2 8:1 9:3 10:10 11:3 14:2 15:2 16:1 20:2 25:1 253:0
0 1:6 2:6 4:8 5:7 9:5 10:6 11:4 14:2 15:3 16:1 20:3 22:1 23:3 24:3 28:2 62:2 93:1 100:1 107:4 253:0
0 1:8 2:7 3:2 4:10 5:7 6:6 7:4 8:2 9:5 10:7 11:4 23:1 24:1 25:4 28:1 34:3 37:1 112:3 113:3 253:0
0 1:6 2:6 4:7 5:5 6:2 9:5 10:8 11:4 14:2 15:2 16:1 23:2 24:2 28:2 253:0
0 15:2 22:2 23:1 55:1 253:0
0 1:6 2:6 4:5 5:2 6:2 9:5 10:7 11:4 23:3 24:2 28:4 35:1 253:0
0 1:9 2:8 3:2 4:12 5:7 6:8 7:2 8:1 9:8 10:4 11:7 12:3 13:1 15:3 16:1 20:4 23:2 24:2 25:2 28:2 29:2 33:2 34:1 253:0
0 1:12 2:12 3:4 4:3 5:5 6:2 7:4 8:2 9:6 11:4 36:2 37:1 66:2 253:0
0 1:6 2:6 4:14 6:6 10:21 14:2 15:1 253:0
0 1:2 2:1 3:5 4:5 5:3 7:8 8:4 9:4 10:3 11:1 15:1 20:1 29:1 36:1 37:3 66:2 253:0
0 1:12 2:12 4:7 6:4 10:8 14:8 15:4 253:0
0 1:16 2:15 3:2 4:5 6:5 7:2 8:1 10:3 14:4 15:4 16:2 20:2 22:2 23:2 24:2 25:1 253:0
0 1:13 2:14 3:5 4:5 5:4 6:3 7:6 8:3 9:4 10:1 11:2 14:2 15:4 16:2 20:2 23:1 24:1 27:1 28:1 29:2 37:1 42:3 43:1 44:2 102:1 103:2 132:2 253:0
0 1:12 2:12 4:10 5:3 6:10 7:3 8:1 9:2 10:4 11:1 14:2 15:3 16:1 19:1 20:3 21:1 25:3 37:1 69:1 70:1 71:1 90:1 91:1 136:1 253:0
0 1:12 2:12 4:3 5:4 9:7 10:1 11:9 15:1 20:1 29:4 62:2 92:4 93:1 253:0
0 1:16 2:15 3:6 4:5 5:4 6:4 7:6 8:3 9:7 10:1 11:4 15:1 20:1 22:1 23:2 24:2 25:2 28:1 29:3 36:1 37:1 39:1 40:1 66:2 72:1 253:0
0 1:6 2:6 4:13 5:3 6:4 9:3 10:16 11:3 14:4 15:6 16:3 20:5 22:1 23:1 24:1 253:0
0 1:12 2:12 4:7 5:7 6:4 9:9 10:1 11:9 12:2 13:1 15:1 20:1 29:4 253:0
0 4:5 10:4 15:5 20:8 23:1 24:2 253:0
0 1:8 2:7 3:2 7:4 8:2 9:2 29:2 36:2 37:1 58:1 59:1 60:1 61:2 62:1 63:2 64:2 65:1 92:2 253:0
0 62:2 63:2 64:4 65:1 93:1 253:0
0 1:12 2:10 3:4 4:8 5:1 6:3 7:6 8:3 9:2 10:10 11:1 14:2 15:2 16:1 20:1 23:1 24:1 25:3 28:1 29:1 33:4 34:2 36:1 37:1 253:0
0 4:12 5:9 9:6 10:9 11:4 12:5 13:2 15:1 20:1 22:1 23:3 24:3 28:2 62:2 93:1 100:1 107:4 253:0
0 4:6 5:2 9:5 10:4 11:4 12:2 13:1 15:4 16:1 20:6 23:2 24:1 28:3 32:1 34:3 35:1 41:1 112:3 113:3 253:0
0 1:12 2:12 4:5 6:4 10:4 14:2 15:3 16:1 20:4 22:1 23:2 24:3 26:2 27:1 253:0
0 1:8 2:7 3:6 4:6 5:5 6:2 7:8 8:4 9:4 10:4 11:2 23:1 24:1 25:2 28:1 29:1 34:3 36:1 37:2 112:3 113:3 253:0
0 1:8 2:7 3:2 4:2 5:3 6:2 7:4 8:2 9:6 11:6 14:2 15:2 16:1 36:2 37:1 253:0
0 1:6 2:6 4:7 5:3 6:2 9:1 10:8 15:1 20:2 23:1 24:2 26:2 27:1 253:0
0 1:6 2:6 4:7 5:3 9:3 10:3 11:3 14:4 15:6 16:3 20:4 253:0
0 1:12 2:10 3:4 4:8 5:1 6:11 7:4 8:1 9:4 10:2 11:1 12:2 13:1 15:4 16:2 20:5 23:1 24:2 25:1 29:2 58:3 59:2 61:4 63:2 65:1 66:1 94:2 95:1 96:1 171:1 253:0
0 1:6 2:6 4:11 5:2 6:2 9:4 10:12 11:6 15:3 16:1 20:6 22:1 23:1 24:1 253:0
0 1:12 2:12 4:3 5:3 6:6 9:2 10:1 11:1 15:1 20:2 23:1 24:1 26:2 27:1 28:1 32:1 59:1 60:1 61:2 62:1 63:2 64:2 65:1 92:2 253:0
0 1:12 2:12 4:12 5:6 6:16 9:6 10:2 11:6 15:6 16:2 20:8 22:2 23:2 24:2 253:0
0 1:8 2:7 3:5 4:1 6:2 7:8 8:4 9:1 14:1 15:2 16:1 20:1 36:2 37:3 103:1 253:0
0 1:18 2:18 4:4 5:1 6:4 9:4 10:4 11:2 26:4 27:2 35:1 39:2 40:2 59:1 60:1 61:2 62:1 63:2 64:2 65:1 72:2 88:1 89:1 92:2 114:2 199:1 253:0
0 1:16 2:15 3:2 4:9 5:6 6:6 7:2 8:1 9:4 10:6 11:2 14:5 15:3 16:1 23:2 24:2 28:2 33:6 34:3 103:1 253:0
0 1:11 2:9 3:1 4:5 6:6 7:1 9:1 10:2 14:4 15:4 16:2 17:1 19:1 23:1 24:2 25:1 26:2 27:1 29:1 42:2 43:1 44:2 55:1 58:1 59:1 60:1 61:2 62:1 63:2 64:2 65:1 69:1 70:1 71:1 92:2 102:1 153:1 253:0
0 1:6 2:6 4:12 5:3 6:4 9:3 10:16 11:3 14:4 15:5 16:2 20:4 253:0
0 1:13 2:14 3:3 4:4 5:5 6:2 7:4 8:2 9:10 11:8 14:2 15:2 16:1 23:1 28:2 29:5 35:1 36:1 37:1 118:1 119:1 253:0
0 1:6 2:6 4:10 5:4 6:2 9:3 10:10 11:3 15:4 16:1 20:6 22:1 23:1 24:1 253:0
0 4:3 5:2 9:2 10:2 11:1 15:2 20:2 22:2 23:2 24:2 253:0
0 1:3 2:2 4:2 5:2 6:1 9:6 11:4 15:1 17:2 18:1 19:2 21:1 23:2 24:1 28:3 29:1 32:1 35:1 40:1 72:1 74:1 88:1 89:1 97:1 114:2 115:1 116:1 117:1 153:1 253:0
0 1:6 2:6 4:9 5:3 6:2 9:3 10:3 11:3 12:4 13:1 14:4 15:6 16:3 20:4 22:2 23:2 24:2 26:2 27:1 253:0
0 1:6 2:6 4:10 5:4 6:4 9:2 10:8 11:1 14:2 15:3 16:1 20:3 23:1 24:2 253:0
0 1:6 2:6 4:3 5:4 6:2 9:4 10:1 11:3 38:1 39:1 40:1 62:2 93:1 100:1 107:1 149:1 253:0
0 1:12 2:12 4:4 6:4 10:3 14:10 15:7 16:1 20:4 253:0
0 4:22 10:32 12:3 13:1 15:1 20:3 23:1 24:2 253:0
0 1:12 2:12 4:6 5:2 6:4 9:3 10:4 11:3 15:2 16:1 20:4 253:0
0 1:12 2:12 4:2 6:4 12:2 13:1 14:12 15:10 16:4 253:0
0 1:6 2:6 4:9 5:6 6:2 9:8 10:6 11:7 15:2 16:1 20:2 23:1 28:2 29:4 33:2 34:1 35:1 253:0
0 1:6 2:6 4:14 5:5 6:2 9:8 10:12 11:5 12:4 13:1 23:3 24:1 28:5 35:2 58:1 59:1 60:1 61:2 62:1 63:2 64:2 65:1 92:2 253:0
0 1:8 2:7 3:2 4:8 5:11 6:1 7:2 9:12 10:3 11:10 23:1 24:1 25:1 28:1 29:3 36:1 62:2 66:1 93:1 94:2 95:1 96:1 100:1 107:1 253:0
0 1:6 2:6 3:4 4:5 6:2 7:4 8:2 9:2 10:6 11:1 15:2 16:1 22:1 23:2 24:2 28:1 32:1 36:2 37:1 253:0
0 1:9 2:7 3:4 4:10 5:7 6:7 7:10 8:3 9:4 10:4 14:2 15:2 16:1 20:1 23:1 24:1 25:7 28:1 37:3 66:4 94:4 95:2 96:2 253:0
0 1:12 2:12 4:8 5:8 6:6 9:10 10:2 11:9 12:3 13:1 23:1 24:1 28:1 35:1 38:1 39:2 40:1 41:1 253:0
0 1:12 2:10 4:11 5:4 6:2 9:4 10:10 11:6 14:2 15:5 16:2 20:7 22:1 23:1 24:1 42:4 43:2 44:4 102:2 253:0
0 4:25 10:36 12:5 13:2 15:3 16:1 20:6 22:1 23:3 24:5 27:1 34:1 76:1 112:3 253:0
0 1:6 2:6 4:3 5:3 6:2 9:3 10:1 11:1 38:1 39:1 40:1 72:1 253:0
0 1:6 2:6 4:11 5:8 6:2 9:8 10:7 11:7 12:4 13:2 15:3 16:1 20:4 23:3 24:4 28:2 32:1 33:6 34:3 41:2 54:1 253:0
0 4:2 5:2 9:6 11:4 15:2 16:1 20:2 35:2 39:4 40:2 253:0
0 4:3 5:6 9:6 11:2 253:0
0 1:6 2:6 4:5 5:5 6:2 9:4 10:3 11:2 14:6 15:6 16:3 23:1 24:1 28:1 253:0
0 1:6 2:6 4:6 5:1 6:2 9:3 10:7 11:3 14:2 15:1 253:0
0 253:0
0 1:12 2:12 4:11 5:4 6:8 7:2 9:3 10:7 11:3 15:1 20:1 22:1 23:2 24:2 25:2 28:1 37:1 94:2 95:3 144:2 253:0
0 1:6 2:6 4:6 5:1 6:2 9:2 10:3 11:1 12:3 13:1 15:1 20:1 23:1 24:1 28:1 29:2 34:3 54:1 90:2 91:2 112:3 113:3 253:0
0 4:5 5:1 9:4 10:3 11:3 12:1 13:1 15:4 16:1 20:6 23:1 28:2 32:1 35:1 38:1 40:1 41:1 68:1 72:1 167:1 184:1 253:0
0 1:3 2:1 3:4 4:2 6:1 7:8 8:4 9:3 12:2 13:1 25:3 29:1 36:3 37:2 66:2 74:1 97:1 115:1 116:1 117:1 253:0
0 1:2 2:1 3:2 4:12 5:8 6:4 7:4 8:2 9:7 10:6 11:6 23:2 24:2 25:4 28:2 34:8 37:1 112:10 113:7 253:0
0 1:12 2:12 4:15 5:4 6:4 9:3 10:21 11:3 15:1 20:1 22:1 23:1 24:1 33:2 34:1 90:1 91:1 253:0
0 1:9 2:8 3:2 4:8 5:1 6:8 7:2 8:1 9:2 10:3 11:1 12:3 13:1 15:1 20:1 22:1 23:2 24:2 25:2 28:1 29:2 253:0
0 1:18 2:18 4:5 6:6 10:1 15:6 16:3 20:7 22:3 23:3 24:3 253:0
0 1:6 2:6 4:8 5:4 6:4 9:5 10:4 11:4 23:1 24:1 28:1 29:2 253:0
0 1:6 2:6 4:1 5:1 9:2 23:1 24:1 28:1 29:2 58:1 59:1 60:1 61:2 62:1 63:2 64:2 65:1 92:2 253:0
0 1:12 2:12 4:1 5:1 6:2 9:2 11:1 14:4 15:2 23:1 24:1 28:1 29:2 253:0
0 1:14 2:13 3:2 4:5 5:1 6:8 7:2 9:1 15:2 16:1 20:2 22:1 23:1 24:1 25:2 34:3 62:2 63:2 64:4 65:1 66:1 92:2 93:1 94:2 95:1 96:1 112:3 113:3 253:0
0 1:12 2:12 4:7 5:7 9:9 10:3 11:9 15:3 16:1 20:3 29:4 62:2 92:4 93:1 253:0
0 1:3 2:2 4:5 5:3 6:2 9:2 10:3 11:1 42:2 43:1 44:2 59:1 60:1 61:2 62:3 63:4 64:6 65:2 92:2 93:1 107:2 121:2 253:0
0 1:6 2:6 4:3 5:1 6:2 9:3 10:1 11:3 15:3 16:1 20:3 22:1 23:1 28:1 29:2 32:1 253:0
0 4:15 10:20 15:8 16:3 20:11 55:3 226:2 227:1 253:0
0 1:12 2:12 4:3 5:4 6:4 9:4 10:3 11:2 23:2 24:1 28:3 35:1 253:0
0 1:13 2:12 3:1 4:5 6:6 7:2 8:1 10:2 15:1 17:1 18:1 19:2 20:1 21:2 22:1 23:1 24:1 25:2 136:1 253:0
0 1:6 2:6 4:5 5:4 9:4 10:2 11:2 14:2 15:3 16:1 20:3 23:1 24:1 28:1 29:2 253:0
0 4:10 5:6 7:4 8:1 9:5 10:9 11:3 12:2 13:1 15:2 20:3 22:1 23:2 24:2 28:1 37:2 41:1 62:2 66:2 93:1 94:2 95:1 96:2 106:1 107:3 253:0
0 1:12 2:12 3:4 4:6 6:6 7:4 8:2 10:2 14:4 15:6 16:3 20:3 37:1 62:2 63:1 64:2 93:1 107:1 110:2 253:0
0 1:10 2:9 3:4 4:9 5:5 6:8 7:5 8:2 9:6 10:4 11:3 23:2 24:2 28:2 29:3 36:1 37:1 94:3 95:1 253:0
0 1:9 2:7 3:3 4:8 5:2 6:3 7:8 8:3 9:4 10:6 11:3 14:2 15:2 16:1 20:1 25:2 29:2 36:2 37:2 42:1 43:1 44:2 45:1 66:1 94:2 95:3 96:1 102:1 144:2 253:0
0 1:8 2:7 3:1 4:6 5:3 6:1 7:3 9:4 10:3 11:3 14:2 15:3 16:1 17:1 19:1 20:3 21:1 22:1 23:1 24:1 25:2 29:1 30:2 31:1 33:2 34:1 36:1 37:1 69:1 70:1 71:1 94:2 95:3 96:2 144:2 253:0
0 1:9 2:8 4:6 5:5 6:4 9:7 10:3 11:3 23:2 24:1 28:3 29:2 33:2 34:1 35:1 42:2 43:1 44:2 102:2 253:0
0 1:6 2:6 4:5 5:4 6:2 9:3 10:2 11:3 23:1 24:2 253:0
0 1:6 2:6 3:4 4:3 5:3 6:2 7:2 9:3 11:3 15:2 16:1 20:2 23:1 24:1 28:1 69:2 70:2 197:1 253:0
0 1:12 2:12 4:3 6:4 10:1 12:2 13:1 14:8 15:6 16:1 20:2 23:1 24:2 54:2 253:0
0 1:2 3:4 7:4 8:2 253:0
0 1:10 2:10 3:4 4:10 5:4 6:4 7:6 8:3 9:3 10:10 11:1 15:2 20:3 29:1 36:1 37:2 59:1 61:2 63:2 65:1 66:2 83:1 84:1 86:2 158:1 253:0
0 1:11 2:9 3:3 4:4 5:1 6:6 7:4 8:2 9:3 10:1 11:3 23:1 24:1 25:2 28:1 36:1 42:1 43:1 44:2 45:1 59:1 60:1 61:2 62:1 63:2 64:2 65:1 92:1 121:1 142:1 253:0
0 1:10 2:9 3:2 4:9 5:5 6:6 7:2 8:1 9:5 10:6 11:4 14:3 15:2 16:1 23:1 24:1 28:1 103:1 253:0
0 1:6 2:6 4:8 5:2 6:2 9:3 10:10 11:3 14:2 15:1 253:0
0 1:13 2:12 3:6 4:2 5:4 7:4 8:2 9:8 11:7 14:5 15:6 16:3 23:1 28:2 29:3 33:2 34:1 35:1 36:1 103:1 253:0
0 1:8 2:6 3:4 4:9 5:5 6:7 7:4 8:2 9:6 10:4 11:6 23:1 24:1 25:3 28:1 29:2 34:3 112:3 113:3 253:0
0 1:6 2:6 4:7 5:6 6:4 9:10 10:3 11:9 12:1 13:1 23:2 24:1 28:3 35:2 41:2 90:1 91:1 253:0
0 1:6 2:6 3:4 4:5 5:5 7:4 8:2 9:7 10:1 11:6 15:2 16:1 20:2 36:2 37:1 66:2 253:0
0 1:10 2:9 3:6 4:3 6:5 7:6 8:3 14:4 15:4 16:2 25:1 37:1 62:2 63:1 64:2 93:1 107:1 110:2 253:0
0 1:7 2:6 3:6 4:11 5:3 6:2 7:6 8:1 9:4 10:10 11:3 15:5 16:2 20:9 29:2 36:2 37:1 66:1 94:4 95:2 96:1 253:0
0 4:1 5:1 9:4 11:2 12:1 13:1 23:2 24:1 28:3 35:1 41:1 253:0
0 1:14 2:17 3:4 7:2 8:1 253:0
0 1:6 2:4 3:4 4:15 5:5 6:4 7:6 8:3 9:7 10:13 11:5 12:4 13:1 23:2 24:3 28:1 29:2 36:4 37:1 253:0
0 4:8 5:2 9:1 10:8 15:1 20:1 22:1 23:1 24:1 253:0
0 1:6 2:6 4:6 5:5 6:2 9:9 10:2 11:9 12:2 13:1 15:1 20:1 22:1 23:2 24:3 29:4 33:2 34:1 41:1 62:2 92:2 93:1 107:1 253:0
0 1:1 3:2 4:8 5:3 6:1 7:4 8:2 9:7 10:5 11:6 23:3 24:3 25:1 28:3 29:1 35:1 36:1 37:1 66:2 253:0
0 4:19 10:20 12:2 13:1 15:3 20:5 22:1 23:2 24:3 253:0
0 1:8 2:7 3:2 4:12 5:9 6:6 7:4 8:2 9:9 10:8 11:6 23:2 24:2 28:2 29:3 34:3 36:3 37:1 112:3 113:3 253:0
0 1:2 3:4 4:1 5:1 6:1 7:4 8:2 9:5 11:1 23:1 24:1 25:1 26:1 27:1 28:1 29:2 35:1 36:2 39:2 40:1 132:1 253:0
0 1:6 2:6 4:9 6:8 10:4 12:3 13:1 14:4 15:6 16:2 20:3 22:2 23:2 24:2 253:0
0 4:24 10:38 12:5 13:2 15:1 20:3 23:2 24:4 27:1 76:1 133:1 253:0
0 1:14 2:13 3:2 4:3 6:6 7:2 9:1 25:2 29:2 34:3 59:1 60:1 61:2 62:1 63:2 64:2 65:1 66:1 92:2 94:2 95:1 96:1 112:3 113:3 253:0
0 1:6 2:6 4:3 5:3 9:3 10:1 11:1 14:4 15:4 16:2 20:3 38:1 39:1 40:1 72:1 253:0
0 1:12 2:12 4:6 5:1 6:6 9:2 10:3 11:1 14:2 15:3 16:1 20:4 23:1 24:1 28:1 29:2 34:3 90:2 91:2 112:3 113:3 253:0
0 1:4 2:2 3:7 4:6 5:4 6:3 7:12 8:6 9:5 10:1 11:3 15:2 16:1 20:2 25:3 36:4 37:4 66:2 253:0
0 1:12 2:12 4:2 6:2 9:3 10:1 11:1 14:2 15:2 16:1 20:1 23:1 26:4 27:2 28:2 29:2 35:1 58:1 59:1 60:1 61:2 62:1 63:2 64:2 65:1 92:2 253:0
0 253:0
0 1:9 2:9 3:5 4:7 6:4 7:6 8:3 9:1 10:7 23:1 24:2 25:2 37:1 66:2 253:0
0 4:11 5:3 9:3 10:7 11:3 12:4 13:2 15:9 16:4 20:9 22:3 23:3 24:2 28:1 41:1 54:2 55:1 62:2 93:1 100:1 106:1 107:2 253:0
0 1:12 2:12 4:7 5:3 6:4 9:4 10:6 11:3 23:1 24:1 26:2 27:1 28:1 29:2 38:1 40:1 72:2 253:0
0 1:1 3:1 4:3 6:2 7:2 8:1 10:1 25:1 27:1 42:1 43:1 44:2 45:1 76:1 102:1 253:0
0 1:6 2:6 4:6 6:2 10:7 12:2 13:1 14:4 15:5 16:2 20:2 55:1 253:0
0 1:6 2:6 3:4 4:9 5:5 6:2 7:4 8:2 9:5 10:3 11:3 12:2 13:1 23:1 24:1 25:2 28:1 37:1 66:2 74:1 97:1 253:0
0 1:12 2:12 4:4 5:3 6:4 9:3 10:2 11:1 15:1 20:1 22:1 23:2 24:2 26:2 27:1 28:1 29:2 38:1 40:1 72:2 253:0
0 1:6 2:6 4:4 5:3 6:2 9:1 10:3 14:4 15:3 20:1 22:1 23:1 24:1 38:1 40:1 62:2 72:1 93:1 107:2 149:1 253:0
0 1:11 2:9 3:4 4:4 6:4 7:6 8:3 9:1 25:4 26:1 27:1 29:2 33:2 34:1 37:1 66:2 118:2 119:1 132:1 253:0
0 1:8 2:6 3:4 4:8 5:3 6:3 7:4 8:2 9:3 10:6 11:1 14:5 15:6 16:3 20:2 23:1 24:1 25:1 28:1 103:1 253:0
0 1:6 2:6 4:4 5:5 6:2 9:6 11:4 14:2 15:2 16:1 23:1 24:1 28:1 29:2 30:2 31:1 253:0
0 1:12 2:12 4:8 5:7 6:2 9:6 10:5 11:6 23:1 24:1 26:2 27:1 28:1 29:2 253:0
0 1:4 2:3 3:2 4:2 5:2 6:3 7:2 8:1 9:2 11:1 25:1 253:0
0 1:11 2:14 253:0
0 4:5 5:6 9:6 10:4 11:4 23:2 24:1 28:3 35:1 63:2 65:1 74:1 84:2 86:4 97:2 137:1 172:1 253:0
0 1:6 2:6 4:14 5:7 6:2 9:5 10:11 11:4 12:6 13:2 15:1 20:1 22:1 23:3 24:3 28:2 33:2 34:1 41:1 253:0
0 1:6 2:6 4:2 5:4 9:5 11:4 26:2 27:1 29:2 253:0
0 1:9 2:8 4:18 5:7 6:6 9:6 10:21 11:6 12:2 13:1 14:4 15:4 16:1 17:2 18:1 19:2 20:5 23:1 24:1 28:1 253:0
0 9:12 11:12 35:6 253:0
0 1:8 2:7 3:2 4:8 5:3 6:8 7:5 8:1 9:3 10:4 11:1 19:1 21:1 23:1 24:1 25:3 28:1 37:1 66:1 69:1 70:1 71:1 94:2 95:1 96:1 136:1 253:0
0 1:6 2:6 4:8 5:8 6:2 9:8 10:3 11:7 12:4 13:2 15:3 16:1 20:3 23:3 24:4 28:2 32:1 33:4 34:2 41:2 54:1 253:0
0 1:10 2:8 3:6 4:9 5:4 6:6 7:5 8:2 9:4 10:5 11:2 15:1 20:3 23:1 24:1 25:2 28:1 29:2 34:1 90:2 91:2 94:3 95:1 112:2 253:0
0 1:12 2:10 3:4 4:7 5:2 6:7 7:6 8:3 9:5 10:4 11:4 15:1 20:3 25:1 26:2 27:1 29:4 36:2 37:1 90:1 91:1 253:0
0 4:28 10:38 12:3 13:1 15:5 16:2 20:8 22:2 23:4 24:6 253:0
0 1:15 2:15 3:3 4:1 5:1 6:2 7:3 9:2 14:4 15:4 16:2 17:2 19:1 29:1 36:1 58:1 59:1 60:1 61:2 62:1 63:2 64:2 65:1 66:1 69:1 70:1 71:1 92:2 94:2 95:1 96:1 253:0
0 4:5 5:3 9:2 10:2 11:1 15:1 20:1 22:1 23:3 24:3 28:1 62:4 93:2 107:4 109:1 253:0
0 1:3 2:2 4:8 5:9 6:1 9:7 10:3 11:6 12:1 13:1 15:2 16:1 20:2 23:2 24:2 26:1 27:1 28:2 42:2 43:1 44:2 58:1 59:1 60:1 61:2 62:1 63:2 64:2 65:1 102:1 106:1 183:1 253:0
0 1:6 2:6 4:17 5:4 6:4 9:3 10:22 11:3 14:4 15:5 16:1 20:7 253:0
0 1:6 2:6 4:12 5:5 6:4 9:6 10:10 11:4 14:2 15:5 16:2 20:6 23:1 24:1 26:2 27:1 28:1 29:2 253:0
0 1:10 2:9 3:2 4:6 5:3 6:3 7:2 8:1 9:2 10:2 11:1 12:5 13:2 23:1 24:1 25:1 28:1 30:1 31:1 90:1 91:1 165:1 253:0
0 4:9 10:6 15:4 16:2 20:4 22:2 23:2 24:2 253:0
0 1:9 2:8 4:5 5:2 6:5 9:4 10:2 11:3 23:1 24:1 26:2 27:1 28:1 29:1 38:1 40:1 42:2 43:1 44:2 72:2 102:1 142:1 253:0
0 1:6 2:6 4:2 5:2 6:2 9:3 11:1 15:1 20:1 22:1 23:2 24:2 28:1 29:2 253:0
0 1:12 2:12 4:9 5:6 6:6 9:6 10:8 11:3 23:3 24:3 28:3 29:2 34:5 112:7 113:4 253:0
0 1:18 2:18 4:5 5:6 6:4 9:10 10:1 11:8 14:4 15:3 16:1 23:2 24:2 28:2 29:6 253:0
0 1:2 2:1 3:5 4:4 5:1 7:8 8:4 9:2 10:3 15:5 16:1 20:8 29:1 32:1 34:1 36:1 37:3 50:1 51:3 52:3 53:3 66:2 82:1 200:2 253:0
0 1:8 2:7 3:2 4:5 5:1 6:7 7:2 9:1 10:1 15:1 20:1 22:1 23:1 24:1 25:1 34:6 66:1 94:2 95:1 96:1 112:6 113:6 253:0
0 4:4 5:3 9:4 10:3 11:1 15:1 20:1 22:1 23:2 24:1 28:2 35:1 253:0
0 1:12 2:12 4:2 6:6 14:2 15:2 20:1 22:1 23:1 24:1 33:4 34:2 253:0
0 1:16 2:16 3:4 4:3 5:5 7:6 8:3 9:10 11:8 12:1 13:1 14:3 15:2 16:1 23:1 24:1 28:1 29:6 33:2 34:1 36:2 37:2 103:1 253:0
0 1:6 2:6 4:1 6:2 9:1 14:2 15:2 20:1 22:1 23:1 24:1 29:2 253:0
0 1:14 2:13 3:2 4:7 5:4 6:4 7:4 8:2 9:6 10:5 11:4 12:1 13:1 14:4 15:2 16:1 23:1 24:1 28:1 29:2 36:2 37:1 253:0
0 1:12 2:12 3:4 4:4 5:1 6:2 7:4 8:2 9:3 10:2 11:1 14:4 15:4 16:2 20:1 23:2 24:1 25:2 28:2 37:1 62:2 66:2 93:1 100:1 107:2 109:1 253:0
0 1:6 2:6 4:10 5:4 6:2 9:3 10:10 11:3 15:3 16:1 20:4 22:1 23:1 24:1 253:0
0 1:6 2:6 4:8 5:1 6:2 9:2 10:7 11:1 14:4 15:5 16:2 20:4 22:2 23:2 24:2 253:0
0 1:6 2:6 4:13 5:9 6:2 9:7 10:11 11:6 23:2 24:3 28:1 33:2 34:1 253:0
0 1:13 2:10 3:6 4:7 5:1 6:11 7:6 8:1 9:3 10:2 14:2 15:2 16:1 20:2 25:3 29:1 33:2 34:1 36:1 66:1 94:4 95:3 96:3 144:1 253:0
0 4:22 10:32 12:8 13:3 15:2 20:4 23:2 24:4 253:0
0 1:12 2:12 4:3 5:2 6:4 9:3 10:1 11:1 23:1 24:1 26:2 27:1 28:1 29:2 38:1 40:1 72:2 253:0
0 1:4 2:3 3:2 4:8 5:3 6:2 7:2 8:1 9:3 10:9 11:3 14:1 15:2 16:1 20:3 103:1 253:0
0 1:6 2:6 4:1 5:1 9:3 14:2 15:2 16:1 20:1 26:4 27:2 35:1 39:2 40:1 88:1 114:2 253:0
0 1:9 2:10 3:3 4:10 5:4 6:2 7:2 8:1 9:3 10:11 11:3 14:2 15:3 16:1 20:2 253:0
0 1:12 2:12 4:5 5:2 6:4 9:5 10:3 11:4 29:4 253:0
0 4:21 5:3 9:6 10:19 11:4 12:1 13:1 15:4 16:1 20:6 23:2 24:1 28:3 32:1 35:1 38:1 39:1 40:1 41:1 72:1 90:1 91:1 253:0
0 1:1 3:2 4:5 5:2 6:1 7:4 8:2 9:5 10:3 11:1 15:4 16:1 20:6 25:1 29:1 32:1 35:1 36:1 37:1 38:1 39:2 40:1 66:2 98:1 99:1 152:1 253:0
0 1:12 2:12 4:3 6:4 10:1 12:2 13:1 14:8 15:5 16:1 20:1 23:1 24:2 54:1 253:0
0 1:4 2:3 3:2 4:5 5:2 7:2 8:1 9:5 10:7 11:2 29:2 35:1 38:1 39:2 40:1 91:1 157:1 253:0
0 1:7 2:8 3:3 4:6 5:5 7:4 8:2 9:7 10:3 11:6 14:4 15:4 16:2 23:1 24:1 28:1 29:1 36:3 37:1 253:0
0 1:10 2:8 3:4 4:8 5:3 6:7 7:6 8:2 9:3 10:5 11:3 15:1 20:1 23:1 24:1 25:3 26:2 27:1 28:1 37:1 94:2 95:1 253:0
0 1:6 2:6 4:13 5:3 6:2 9:3 10:14 11:3 15:1 20:3 253:0
0 1:8 2:7 3:2 4:7 5:2 6:2 7:4 8:2 9:3 10:5 11:1 14:1 15:4 16:1 20:5 29:1 33:2 34:1 36:1 37:1 58:3 59:2 61:4 62:2 63:2 65:1 93:1 103:1 107:1 110:2 171:1 253:0
0 1:12 2:12 4:7 5:5 6:6 9:8 10:2 11:7 12:1 13:1 14:2 15:4 16:2 20:2 23:2 24:3 28:1 29:2 32:1 33:4 34:2 41:1 54:1 253:0
0 4:8 5:1 9:3 10:7 11:1 15:4 16:2 20:7 35:1 39:2 40:1 55:1 253:0
0 4:23 10:32 12:5 13:2 15:2 16:1 20:4 22:1 23:3 24:5 253:0
0 1:13 2:14 3:3 4:5 5:4 6:2 7:2 9:6 10:3 11:4 14:4 15:2 16:1 23:1 24:1 28:1 33:4 34:2 66:1 94:2 95:1 96:1 253:0
0 4:14 5:8 9:6 10:15 11:6 253:0
0 1:4 2:4 3:4 4:6 5:6 7:6 8:3 9:5 10:4 11:4 12:1 13:1 23:1 24:1 28:1 29:1 36:1 37:2 253:0
0 4:23 10:35 12:5 13:2 15:2 20:3 23:2 24:4 34:2 112:5 253:0
0 1:10 2:9 3:2 4:8 5:4 6:2 7:2 8:1 9:7 10:9 11:6 12:2 13:1 15:1 20:1 22:1 23:2 24:3 29:4 33:6 34:3 36:2 41:1 253:0
0 1:12 2:12 4:4 6:4 9:2 11:1 15:5 16:2 20:5 22:1 23:1 24:1 29:4 34:3 112:3 113:3 253:0
0 1:8 2:9 3:3 4:3 5:2 6:4 7:6 8:2 9:4 10:1 11:3 37:2 66:1 94:2 95:1 96:1 253:0
0 1:12 2:12 4:3 5:1 6:2 9:2 11:1 14:4 15:4 16:2 20:2 22:2 23:3 24:3 28:1 29:2 253:0
0 1:11 2:14 4:8 6:4 10:12 62:1 63:2 64:2 65:1 84:1 85:1 86:2 92:2 253:0
0 1:15 2:17 3:2 4:7 5:2 6:2 7:2 8:1 9:4 10:8 11:2 14:2 15:2 16:1 20:3 23:1 28:2 29:2 33:2 34:1 35:1 253:0
0 1:6 2:6 4:3 5:2 6:2 9:3 10:1 11:3 23:1 24:1 26:2 27:1 28:1 62:2 63:2 64:4 65:1 93:1 100:1 107:2 253:0
0 1:12 2:12 4:9 5:2 6:8 9:1 10:6 15:1 20:1 22:1 23:1 24:1 26:2 27:1 58:1 59:1 60:1 61:2 62:1 63:2 64:2 65:1 92:2 253:0
0 1:6 2:6 4:9 6:4 10:4 14:4 15:10 16:5 20:6 55:1 253:0
0 1:6 2:6 4:6 5:3 6:2 9:1 10:3 14:4 15:8 16:3 20:5 22:1 23:1 24:1 38:1 40:1 62:2 72:1 93:1 107:2 149:1 253:0
0 1:14 2:15 4:4 6:5 10:2 14:2 15:1 17:3 18:1 19:2 21:1 23:1 24:2 253:0
0 4:4 10:4 12:1 13:1 15:1 20:3 27:1 118:1 119:1 133:1 253:0
0 1:11 2:11 3:5 4:7 5:3 6:3 7:4 8:1 9:3 10:6 11:3 14:1 15:2 16:1 20:2 25:1 94:2 95:1 103:1 253:0
0 1:16 2:16 3:4 4:3 5:2 6:5 7:6 8:3 9:2 10:1 11:1 14:2 15:1 25:1 29:1 36:1 37:2 253:0
0 1:12 2:12 4:11 6:10 10:7 15:8 16:2 20:14 55:1 253:0
0 4:6 5:5 9:4 10:4 11:3 23:2 24:2 28:2 253:0
0 1:6 2:6 4:4 5:3 6:4 9:3 11:3 23:1 24:1 28:1 253:0
0 1:6 2:6 4:11 5:6 6:2 9:7 10:10 11:6 12:2 13:1 14:2 15:3 16:1 20:1 22:1 23:2 24:3 29:4 41:1 253:0
0 1:14 2:13 3:8 4:1 6:3 7:9 8:2 9:1 25:1 37:2 62:2 66:1 92:2 93:1 94:7 95:3 96:1 110:2 253:0
0 1:12 2:12 4:4 5:6 9:11 10:1 11:10 29:4 58:2 59:1 60:1 61:2 62:3 63:2 64:2 65:1 92:6 93:1 253:0
0 1:6 2:6 4:9 5:6 6:2 9:9 10:3 11:7 12:6 13:3 15:3 16:1 20:3 22:1 23:2 24:2 28:1 29:2 35:1 38:1 39:1 40:1 41:3 72:1 253:0
0 1:7 2:6 3:2 4:7 5:2 6:3 7:4 8:2 9:1 10:6 15:4 16:2 20:5 22:2 23:2 24:2 25:1 37:1 66:2 253:0
0 1:6 2:6 4:4 5:3 6:2 9:2 10:2 11:1 15:2 16:1 20:3 253:0
0 1:6 2:6 4:6 5:3 6:2 9:4 10:1 11:3 14:2 15:4 16:2 20:3 22:1 23:1 24:1 29:2 253:0
0 1:14 2:12 3:4 4:5 5:3 6:4 7:4 8:2 9:5 10:1 11:4 14:3 15:5 16:2 20:3 23:1 24:1 28:1 29:5 34:3 36:1 103:1 112:3 113:3 253:0
0 1:12 2:11 3:4 4:9 5:4 6:5 7:3 8:1 9:3 10:5 11:3 12:2 13:1 15:1 20:1 23:1 24:1 25:1 28:1 94:3 95:1 253:0
0 1:12 2:12 4:4 6:4 10:3 14:10 15:7 16:1 20:4 253:0
0 4:7 9:1 10:8 15:2 16:1 20:3 22:1 23:1 28:1 32:1 118:1 119:1 253:0
0 4:9 5:2 9:5 10:11 11:4 12:1 13:1 23:3 24:2 28:4 35:1 118:2 119:1 253:0
0 1:6 2:6 3:2 4:1 7:2 8:1 14:2 15:2 16:1 20:1 42:2 43:1 44:2 45:1 59:1 60:1 61:2 62:1 63:2 64:2 65:1 110:1 121:1 253:0
0 4:7 5:3 9:1 10:10 15:2 20:2 22:2 23:2 24:2 62:2 63:2 64:4 65:1 93:1 107:3 253:0
0 4:23 10:31 12:3 13:1 15:4 16:2 20:7 22:2 23:2 24:2 118:1 119:1 253:0
0 4:10 5:6 9:8 10:7 11:12 253:0
0 1:6 2:6 4:5 5:3 6:2 9:2 10:4 11:1 15:2 16:1 20:1 22:1 23:1 26:2 27:1 28:1 32:1 253:0
0 4:26 5:3 9:3 10:35 11:3 12:3 13:1 15:4 16:1 20:7 22:1 23:3 24:5 253:0
0 1:12 2:12 4:9 5:3 6:4 9:4 10:9 11:3 15:2 16:1 20:2 22:1 23:1 24:1 29:2 253:0
0 1:14 2:13 3:2 4:4 5:1 6:4 7:2 9:3 10:2 11:1 14:2 15:2 16:1 23:1 24:1 25:2 26:2 27:1 28:1 29:2 66:1 74:1 94:2 95:1 96:1 97:2 253:0
0 1:14 2:15 3:3 4:6 5:3 6:4 7:2 8:1 9:2 10:3 11:1 14:2 15:4 16:1 20:4 22:1 23:1 24:1 26:2 27:1 253:0
0 1:6 2:6 4:2 5:2 9:1 10:1 14:2 15:2 16:1 20:1 88:1 114:1 253:0
0 1:6 2:6 4:3 9:1 10:1 14:2 15:2 20:2 26:2 27:1 29:2 46:1 47:1 49:2 51:2 53:1 74:1 82:2 97:1 115:1 116:1 117:1 129:2 130:1 161:1 253:0
0 1:4 2:3 3:2 4:3 5:3 7:2 8:1 9:2 10:2 11:1 14:2 15:2 16:1 20:1 26:1 27:1 132:1 253:0
0 1:1 3:2 4:14 5:3 6:1 7:4 8:2 9:6 10:15 11:6 15:2 16:1 20:4 23:2 24:1 25:3 28:3 29:1 35:1 36:1 37:1 253:0
0 4:27 10:40 12:5 13:2 15:4 16:1 20:7 22:1 23:3 24:5 253:0
0 4:24 10:28 12:11 13:4 15:3 20:7 118:2 119:1 253:0
0 4:21 10:30 12:5 13:2 15:1 20:3 23:1 24:2 118:1 119:1 253:0
0 1:6 2:6 4:6 6:4 10:5 15:1 20:1 22:1 23:1 24:1 253:0
0 1:9 2:8 3:2 4:10 5:6 6:8 7:2 8:1 9:7 10:3 11:5 12:3 13:1 23:2 24:2 25:2 28:2 29:2 33:2 34:1 253:0
0 1:6 2:6 4:8 5:2 6:6 9:3 10:5 11:3 12:2 13:1 15:1 20:1 22:1 23:2 24:3 29:2 33:2 34:1 41:1 253:0
0 4:1 27:1 31:1 34:3 76:1 112:3 113:3 124:1 242:1 253:0
0 1:6 2:6 4:6 5:3 6:2 9:3 10:5 11:3 33:2 34:1 62:2 63:2 64:4 65:1 92:2 93:1 253:0
0 4:13 5:10 9:6 10:13 11:4 15:1 20:1 22:1 23:3 24:3 28:2 62:2 93:1 100:1 107:4 253:0
0 1:6 2:6 4:7 5:2 6:2 9:2 10:9 11:1 23:2 24:2 28:2 253:0
0 1:6 2:6 4:13 5:4 6:4 9:3 10:16 11:3 12:1 13:1 14:2 15:1 253:0
0 1:12 2:12 4:9 5:4 6:8 9:3 10:9 11:1 23:1 24:1 28:1 253:0
0 4:1 15:2 16:1 20:1 27:1 34:5 76:1 111:4 112:3 113:2 181:1 253:0
0 1:6 2:6 4:8 5:2 6:2 9:6 10:6 11:3 26:4 27:2 35:2 39:4 40:2 253:0
0 1:24 2:26 3:6 4:5 5:3 6:4 7:4 8:2 9:2 10:2 11:1 14:2 15:3 16:1 20:2 22:1 23:2 24:2 25:2 28:1 33:2 34:1 253:0
0 1:6 2:6 4:8 5:2 6:2 9:4 10:6 11:3 12:3 13:1 23:1 24:1 26:2 27:1 28:1 29:2 38:1 40:1 72:2 253:0
0 1:8 2:9 4:5 5:5 6:1 9:5 10:3 11:2 17:3 18:1 19:2 21:1 23:1 24:1 26:2 27:1 28:1 29:2 38:1 39:1 40:1 72:1 253:0
0 1:12 2:12 4:3 5:2 6:4 9:4 11:3 23:1 24:1 28:1 29:4 38:1 39:1 40:1 72:1 253:0
0 1:12 2:12 4:4 5:2 6:2 9:2 10:3 11:1 29:2 33:4 34:5 40:1 59:1 60:1 61:2 62:1 63:2 64:2 65:1 72:2 88:1 89:1 92:2 112:3 113:3 114:2 253:0
0 1:6 2:6 4:4 5:2 6:2 9:1 10:2 14:4 15:4 16:1 20:2 22:1 23:1 24:1 253:0
0 1:18 2:18 4:6 5:1 6:6 9:2 10:6 11:1 14:4 15:4 16:2 20:2 22:2 23:3 24:3 28:1 29:2 253:0
0 4:9 5:2 9:8 10:8 11:12 253:0
0 1:12 2:12 4:5 5:1 6:4 9:5 10:5 11:4 26:2 27:1 29:4 253:0
0 1:14 2:12 3:4 4:6 5:4 6:4 7:4 8:2 9:4 10:3 11:2 23:1 24:1 25:2 26:4 27:2 28:1 29:1 34:2 36:1 74:2 105:4 112:4 113:1 253:0
0 1:6 2:6 4:4 5:1 6:4 9:2 10:1 11:1 14:2 15:4 16:2 20:3 22:1 23:1 28:1 32:1 253:0
0 4:9 5:5 9:4 10:8 11:3 23:2 24:2 28:2 253:0
0 1:10 2:8 3:7 4:9 5:8 6:3 7:6 9:4 10:9 11:1 14:2 15:1 25:1 29:2 37:1 66:1 94:6 95:5 96:3 144:2 253:0
0 4:28 5:2 9:2 10:42 11:1 15:2 20:4 23:1 24:1 28:1 62:1 63:2 64:2 65:1 84:1 85:1 86:2 107:1 253:0
0 1:14 2:13 3:2 4:6 5:3 6:8 7:2 9:3 10:2 11:1 25:2 26:2 27:1 66:1 94:2 95:1 96:1 253:0
0 1:14 2:15 3:3 4:4 5:1 6:4 7:2 8:1 9:5 10:3 11:3 14:4 15:2 23:1 28:2 29:2 35:1 39:1 40:1 66:2 72:1 88:1 89:1 114:1 253:0
0 1:12 2:12 4:11 6:6 10:9 14:2 15:10 16:3 20:17 26:2 27:1 55:1 253:0
0 4:25 10:39 12:5 13:2 15:1 20:2 23:2 24:4 253:0
0 1:6 2:6 4:7 5:6 6:2 9:7 10:3 11:5 14:2 15:2 16:1 23:1 24:1 28:1 29:2 62:2 63:2 64:4 65:1 92:2 93:1 107:1 253:0
0 1:9 2:8 4:5 6:5 10:4 15:1 20:1 22:1 23:2 24:3 42:2 43:1 44:2 102:1 253:0
0 1:17 2:20 4:6 5:1 6:6 9:6 10:6 11:4 12:1 13:1 14:2 15:2 16:1 23:2 24:1 28:3 29:4 35:1 41:1 58:1 59:1 60:1 61:2 62:1 63:2 64:2 65:1 253:0
0 1:1 3:2 4:6 5:5 7:2 9:5 10:5 11:3 15:1 20:1 22:1 23:2 24:2 28:1 62:2 63:2 64:4 65:1 66:2 93:1 94:2 95:2 96:2 100:1 107:4 144:1 253:0
0 1:6 2:6 4:1 5:1 6:2 9:2 23:1 24:1 28:1 29:2 67:2 68:1 74:1 97:1 115:1 116:1 117:1 253:0
0 1:18 2:18 4:8 6:8 10:9 23:3 24:6 253:0
0 1:8 2:9 3:3 4:3 5:2 6:2 7:2 8:1 9:2 10:1 11:1 14:2 15:2 16:1 23:1 24:1 28:1 253:0
0 1:1 3:2 4:6 5:2 6:1 7:4 8:2 9:7 10:4 11:6 15:1 20:2 23:2 24:1 25:1 28:3 29:1 35:1 36:1 37:1 66:2 253:0
0 1:6 2:6 4:1 5:2 9:8 11:5 23:2 24:2 28:2 29:8 47:1 48:1 49:2 50:1 51:2 52:2 53:1 74:1 97:1 115:1 116:1 117:1 123:1 253:0
0 1:6 2:6 4:14 5:5 6:2 9:4 10:15 11:6 15:5 16:2 20:8 22:1 23:1 24:1 253:0
0 1:14 2:15 3:3 4:6 5:6 6:4 7:2 8:1 9:7 10:1 11:6 14:2 15:2 16:1 20:1 23:1 24:1 28:1 29:2 90:1 91:1 253:0
0 1:1 3:2 4:11 6:1 7:4 8:2 10:15 25:1 37:1 118:2 119:1 253:0
0 4:2 5:2 9:2 11:1 253:0
0 1:12 2:12 4:6 5:1 6:6 9:2 10:3 11:1 12:4 13:1 14:2 15:2 20:1 23:1 24:1 26:2 27:1 28:1 29:2 34:3 112:3 113:3 253:0
0 1:6 2:6 4:24 6:2 10:35 12:5 13:2 15:4 16:1 20:7 22:1 23:3 24:5 34:1 112:3 253:0
0 1:12 2:12 4:6 5:5 6:2 9:6 10:3 11:6 14:2 15:2 16:1 23:1 24:2 29:2 33:2 34:1 253:0
0 1:3 2:3 3:4 7:6 8:2 14:1 15:2 37:2 94:2 95:1 103:3 253:0
0 1:13 2:14 3:3 4:3 5:2 6:3 7:2 9:7 10:1 11:4 14:2 15:2 16:1 25:1 29:6 66:1 74:1 94:2 95:1 96:1 97:1 115:1 116:1 117:1 253:0
0 1:12 2:12 4:11 5:8 6:6 9:5 10:6 11:4 15:3 16:1 20:3 22:2 23:3 24:3 28:1 253:0
0 1:13 2:12 3:2 4:12 5:1 6:10 7:6 8:2 9:1 10:7 23:1 24:2 25:6 37:2 66:2 94:2 95:3 144:2 253:0
0 1:12 2:12 4:5 6:6 10:5 14:2 15:2 16:1 23:2 24:4 253:0
0 1:7 2:6 3:2 4:9 5:4 6:5 7:4 8:2 9:4 10:9 11:1 23:1 24:1 25:3 28:1 37:1 66:2 253:0
0 1:14 2:14 3:5 4:1 5:1 7:6 8:2 9:3 11:1 14:4 15:4 16:2 20:1 29:3 30:2 31:1 33:2 34:1 36:1 37:1 66:1 94:2 95:2 96:1 144:1 253:0
0 1:12 2:12 4:5 5:3 9:6 10:5 11:6 29:4 62:2 92:4 93:1 253:0
0 1:12 2:12 4:8 5:4 6:4 9:4 10:5 11:2 14:2 15:2 16:1 20:2 23:1 24:1 28:1 58:2 59:1 60:1 61:2 62:1 63:2 64:2 65:1 92:2 253:0
0 1:6 2:6 4:3 5:2 6:2 9:1 10:2 14:2 15:1 253:0
0 1:6 2:6 4:8 5:5 6:4 9:5 10:3 11:4 23:1 24:1 28:1 29:2 253:0
0 1:12 2:12 4:5 5:5 6:2 9:6 10:2 11:6 29:2 253:0
0 4:11 10:19 23:1 24:2 253:0
0 4:17 5:2 9:1 10:16 15:2 20:3 253:0
0 1:10 2:9 3:2 4:15 5:2 6:4 7:2 8:1 9:2 10:24 11:1 23:1 24:1 26:2 27:1 28:1 253:0
0 1:7 2:6 3:1 4:12 5:9 6:5 7:2 8:1 9:7 10:9 11:5 15:1 20:3 23:2 24:2 28:2 34:3 42:1 43:1 44:2 45:1 102:1 112:3 113:3 253:0
0 1:6 2:6 4:3 5:2 6:2 9:1 10:2 253:0
0 1:6 2:6 4:9 5:3 6:2 9:3 10:3 11:3 12:4 13:1 14:4 15:6 16:3 20:4 22:2 23:2 24:2 253:0
0 4:7 5:2 9:2 10:8 11:1 15:3 20:4 22:1 23:2 24:2 28:1 253:0
0 1:12 2:12 4:6 5:2 6:4 9:6 10:7 11:6 29:4 253:0
0 1:8 2:7 3:1 4:9 5:7 6:6 7:1 9:5 10:5 11:4 15:1 17:1 19:1 20:1 21:1 22:1 23:3 24:3 25:1 26:2 27:1 28:2 62:2 69:1 70:1 71:1 93:1 100:1 107:4 253:0
0 1:6 2:6 4:6 5:7 9:11 10:1 11:10 12:3 13:2 23:1 26:2 27:1 28:2 29:2 35:1 39:1 40:1 41:1 72:1 88:1 89:1 114:2 253:0
0 1:21 2:23 3:2 4:6 5:5 6:6 7:2 8:1 9:7 10:3 11:4 12:3 13:1 23:1 24:1 28:1 35:1 38:1 39:2 40:1 41:1 253:0
0 74:1 116:1 117:1 253:0
0 1:6 2:6 4:14 5:6 6:4 9:6 10:14 11:6 12:2 13:1 14:4 15:7 16:3 20:7 253:0
0 4:1 5:1 9:4 11:6 15:1 20:1 22:1 23:1 24:1 253:0
0 1:16 2:15 3:2 4:5 5:5 6:6 7:2 8:1 9:6 11:6 14:4 15:4 16:2 20:2 29:2 33:2 34:1 253:0
0 1:6 2:6 4:2 5:4 9:7 10:1 11:3 26:2 27:1 29:2 35:3 38:2 39:4 40:2 253:0
0 1:12 2:12 4:5 5:3 6:6 9:7 10:2 11:5 12:2 13:1 23:2 24:1 28:3 29:2 33:6 34:3 35:1 41:1 90:1 91:1 253:0
0 1:6 2:6 4:13 5:4 6:8 9:6 10:11 11:4 12:1 13:1 23:1 28:2 29:2 35:1 58:1 59:1 60:1 61:2 62:1 63:2 64:2 65:1 106:1 253:0
0 1:12 2:12 4:2 5:1 6:2 9:3 10:1 11:1 12:1 13:1 14:6 15:4 16:2 23:2 24:2 28:1 29:2 41:1 54:1 58:1 59:1 60:1 61:2 62:1 63:2 64:2 65:1 253:0
0 1:4 2:3 3:2 4:6 5:4 7:2 8:1 9:2 10:7 11:1 14:2 15:2 16:1 20:1 26:1 27:1 132:1 253:0
0 1:12 2:12 4:2 6:2 10:1 14:4 15:3 16:1 20:1 22:1 23:1 24:1 26:4 27:2 253:0
0 1:12 2:12 4:7 5:2 6:6 9:3 10:6 11:3 12:4 13:1 253:0
0 1:9 2:10 3:3 4:9 5:3 6:3 7:2 8:1 9:3 10:6 11:3 12:6 13:2 14:2 15:4 16:1 20:5 22:1 23:2 24:2 25:1 28:1 41:1 253:0
0 4:16 5:9 9:5 10:14 11:4 15:3 16:1 20:3 22:2 23:3 24:3 28:1 253:0
0 1:8 2:7 3:2 4:7 6:2 7:4 8:2 9:2 10:5 11:1 14:1 15:3 16:1 20:4 29:2 34:3 36:2 37:1 62:2 63:1 64:2 92:2 93:1 103:1 107:2 112:3 113:3 210:2 211:1 212:1 253:0
0 1:8 2:6 3:4 4:6 6:10 7:4 8:2 14:4 15:4 20:2 25:2 62:2 107:2 139:2 140:1 253:0
0 1:6 2:6 4:4 5:3 6:2 9:1 10:4 14:4 15:3 20:1 22:1 23:1 24:1 88:1 114:1 253:0
0 1:15 2:16 3:3 4:2 5:4 7:2 8:1 9:5 11:4 29:2 62:2 63:2 64:4 65:1 92:4 93:1 253:0
0 4:4 5:2 9:3 10:3 11:3 15:2 16:1 20:3 22:1 23:2 24:1 28:2 32:1 253:0
0 1:13 2:14 3:3 4:6 5:6 6:4 7:4 8:2 9:6 10:3 11:4 15:2 16:1 20:2 29:1 36:3 37:1 62:2 63:2 64:4 65:1 92:2 93:1 107:1 253:0
0 1:2 2:1 3:2 4:9 5:2 6:2 7:4 8:2 9:4 10:4 11:3 12:2 13:1 15:3 16:1 20:4 23:1 25:2 28:1 29:1 36:1 37:1 41:1 62:2 106:1 107:2 139:2 140:1 253:0
0 4:5 5:4 9:3 10:2 11:3 12:2 13:1 15:4 16:1 20:4 22:1 23:2 24:2 28:1 32:1 54:1 253:0
0 1:13 2:14 3:3 4:6 5:5 6:2 7:4 8:2 9:10 10:5 11:8 14:2 15:2 16:1 23:1 28:2 29:5 35:1 36:1 37:1 118:1 119:1 253:0
0 1:12 2:12 4:4 5:2 6:4 9:6 10:6 11:6 15:4 16:2 23:3 24:2 28:4 32:2 35:1 253:0
0 1:4 2:3 3:2 4:5 5:3 6:4 7:2 8:1 9:3 10:3 11:3 118:1 119:1 253:0
0 4:1 15:1 20:1 22:1 23:1 24:1 27:2 76:2 104:1 253:0
0 4:9 5:1 9:1 10:10 15:1 20:1 22:1 23:1 24:1 253:0
0 1:1 3:2 4:1 5:1 6:1 7:4 8:2 9:4 11:1 23:1 24:1 25:1 28:1 29:1 35:1 36:1 37:1 38:1 39:2 40:1 253:0
0 1:8 2:7 3:1 4:10 5:2 6:5 7:1 9:4 10:8 11:2 12:4 13:2 15:2 16:1 17:1 19:1 20:2 21:1 23:2 24:2 28:2 29:1 33:2 34:4 36:1 41:1 54:1 69:1 70:1 71:1 112:3 113:3 253:0
0 1:12 2:12 3:2 4:7 5:3 6:7 7:2 8:1 9:5 10:2 11:4 12:2 13:1 17:3 18:1 19:2 21:1 23:2 24:2 28:2 29:1 36:1 253:0
0 1:9 2:7 3:3 4:6 5:6 6:3 7:6 8:3 9:10 11:8 15:1 20:1 23:1 24:1 25:2 26:2 27:1 28:1 29:4 36:3 37:1 42:1 43:1 44:2 45:1 102:1 142:1 253:0
0 1:12 2:12 4:1 5:1 6:2 9:2 11:1 14:2 15:1 23:1 24:1 28:1 29:2 30:4 31:2 253:0
0 1:9 2:8 3:2 4:5 5:4 6:5 7:2 9:5 11:4 15:2 16:1 20:2 25:1 29:1 36:1 94:2 95:1 253:0
0 1:6 2:6 4:8 5:5 6:2 9:4 10:6 11:2 14:2 15:3 16:1 20:3 23:1 24:1 28:1 29:2 253:0
0 1:10 2:9 3:2 4:4 5:1 6:3 7:2 8:1 9:3 10:4 11:3 25:1 30:2 31:1 253:0
0 1:12 2:12 4:5 6:6 10:5 23:2 24:4 253:0
0 4:12 5:5 9:3 10:14 11:1 15:1 20:1 22:1 23:2 24:2 28:1 253:0
0 4:2 5:2 9:1 10:1 15:2 20:2 22:1 23:1 24:1 253:0
0 1:18 2:18 3:5 4:3 5:2 6:4 7:4 8:2 9:3 10:1 11:1 23:2 24:3 26:2 27:1 28:1 29:2 66:2 253:0
0 1:6 2:6 4:10 5:6 6:2 9:3 10:11 11:1 253:0
0 4:3 5:2 9:5 11:3 12:1 13:1 15:5 16:2 20:5 23:1 28:2 32:1 35:1 38:1 39:1 40:1 41:1 55:1 72:1 253:0
0 1:18 2:18 4:9 5:4 6:10 9:2 10:6 11:1 14:4 15:5 16:2 20:2 22:1 23:2 24:2 28:1 253:0
0 1:8 2:9 4:2 6:2 12:2 13:1 14:2 15:2 16:1 17:3 18:1 19:2 20:1 22:1 23:1 24:1 253:0
0 1:14 2:13 3:2 4:2 6:4 7:2 9:1 25:2 29:2 33:2 34:4 59:1 60:1 61:2 62:1 63:2 64:2 65:1 66:1 92:2 94:2 95:1 96:1 112:3 113:3 253:0
0 4:9 5:4 9:6 10:7 11:3 12:1 13:1 15:5 16:2 20:7 22:1 23:2 24:1 28:2 32:1 35:1 38:1 39:1 40:1 41:1 72:1 253:0
0 1:6 2:6 4:11 5:3 6:2 7:2 9:2 10:12 11:1 14:2 15:3 16:1 20:3 22:1 23:1 24:1 25:2 26:2 27:1 37:1 94:2 95:3 144:2 253:0
0 1:6 2:6 4:4 5:5 9:6 10:1 11:6 15:2 20:3 29:2 253:0
0 1:16 2:15 3:2 4:1 6:2 7:2 8:1 9:3 14:2 15:2 20:1 22:1 23:1 24:1 29:5 36:1 58:1 59:1 60:1 61:2 62:1 63:2 64:2 65:1 92:2 127:2 128:1 253:0
0 4:8 5:4 9:3 10:6 11:3 15:4 20:7 253:0
0 1:9 2:8 4:2 5:1 6:3 7:2 9:2 11:1 25:2 26:2 27:1 29:2 37:1 42:2 43:1 44:2 59:1 60:1 61:2 62:1 63:2 64:2 65:1 92:2 94:2 95:3 102:1 144:2 253:0
0 1:18 2:18 4:6 6:8 10:6 14:8 15:5 16:1 20:1 253:0
0 1:12 2:12 4:6 5:3 6:4 9:5 10:7 11:6 23:1 24:1 28:1 253:0
0 4:15 10:13 12:6 13:2 15:5 16:2 20:3 23:2 24:4 54:2 253:0
0 1:6 2:6 26:2 27:1 47:2 48:2 49:4 50:2 51:4 52:4 53:2 62:2 92:2 93:1 166:1 243:2 253:0
0 1:8 2:9 4:7 5:6 6:1 9:5 10:6 11:4 23:1 24:1 26:2 27:1 28:1 42:3 43:1 44:2 102:1 253:0
0 1:12 2:12 4:11 5:3 6:6 9:4 10:6 11:2 12:2 13:1 14:2 15:4 16:1 20:4 23:1 24:1 28:1 29:2 34:2 112:4 113:1 253:0
0 1:12 2:12 4:1 5:1 6:2 9:2 11:1 14:2 15:1 23:1 24:1 28:1 29:2 30:6 31:3 253:0
0 1:12 2:12 4:4 5:2 6:6 9:4 10:3 11:3 29:2 253:0
0 1:6 2:6 4:4 5:5 9:6 10:1 11:6 15:2 20:3 29:2 253:0
0 4:22 10:31 12:6 13:2 15:1 20:3 23:2 24:4 253:0
0 1:6 2:6 4:3 5:4 9:7 11:6 15:2 16:1 20:2 23:1 26:2 27:1 28:2 29:2 35:1 38:1 39:1 40:1 72:1 253:0
0 1:6 2:6 4:2 5:1 6:2 7:2 9:2 10:1 15:2 16:1 20:2 22:1 23:1 26:2 27:1 28:1 32:1 37:1 94:2 95:3 96:2 144:2 253:0
0 1:6 2:6 4:1 5:1 6:2 9:3 11:1 35:1 39:2 40:1 67:2 68:1 253:0
0 1:13 2:14 3:3 4:5 5:1 6:3 7:2 9:1 10:3 15:3 16:1 20:5 22:1 23:1 24:1 25:1 66:1 94:2 95:1 96:1 253:0
0 4:1 253:0
0 4:8 5:12 9:12 11:12 15:4 20:4 22:4 23:4 24:4 253:0
0 4:5 5:3 9:2 10:4 11:1 15:4 20:7 253:0
0 4:7 5:2 9:1 10:6 15:3 16:1 20:3 22:2 23:2 24:2 253:0
0 4:23 10:35 12:3 13:1 15:3 20:6 23:2 24:4 253:0
0 1:6 2:6 4:5 5:3 6:2 9:1 10:4 14:4 15:4 16:1 20:2 22:1 23:1 24:1 253:0
0 4:24 10:35 12:3 13:1 15:4 16:1 20:7 22:1 23:3 24:5 34:1 112:3 253:0
0 1:4 2:3 3:2 7:2 8:1 14:3 15:2 26:2 27:1 103:1 253:0
0 1:12 2:12 4:6 5:2 6:6 9:1 10:6 26:4 27:2 253:0
0 1:13 2:14 3:3 4:3 6:2 7:4 8:2 9:2 11:1 14:4 15:8 16:4 20:4 29:3 36:1 37:1 118:1 119:1 253:0
0 1:12 2:12 4:8 5:1 6:4 9:3 10:8 11:3 15:2 16:1 20:4 22:1 23:1 24:1 253:0
0 4:26 10:37 12:3 13:1 15:5 16:1 20:8 22:2 23:4 24:6 253:0
0 1:18 2:18 4:7 5:2 6:6 9:3 10:6 11:3 14:4 15:4 16:2 20:2 22:2 23:4 24:4 28:2 29:2 253:0
0 1:10 2:9 3:2 4:6 5:4 6:3 7:2 8:1 9:4 10:6 11:1 15:2 16:1 20:2 23:1 24:1 25:1 28:1 29:2 33:4 34:2 38:1 39:1 40:1 62:2 93:1 100:1 107:1 149:1 253:0
0 1:8 2:6 3:4 4:9 5:1 6:1 7:4 8:2 9:3 10:11 11:3 14:1 15:3 16:1 20:1 22:1 23:2 24:3 25:1 26:2 27:1 29:3 33:4 34:3 36:1 103:1 112:3 253:0
0 1:5 2:3 3:5 4:2 6:1 7:5 8:4 10:1 15:1 20:1 25:1 37:1 46:2 47:2 48:2 49:4 50:2 51:4 52:4 53:2 151:2 166:1 253:0
0 1:10 2:9 3:2 4:4 5:4 6:2 7:2 8:1 9:7 10:2 11:5 23:1 28:2 29:3 30:2 31:1 34:3 35:1 36:1 112:3 113:3 253:0
0 4:3 5:1 9:3 10:3 11:3 15:2 16:1 20:3 22:1 23:2 24:1 28:2 32:1 253:0
0 1:18 2:18 3:5 4:2 5:1 6:2 7:4 8:2 9:4 10:1 11:2 29:6 253:0
0 4:1 15:1 20:1 27:3 50:1 51:3 52:3 53:3 76:3 82:1 104:3 253:0
0 1:12 2:12 4:7 5:3 6:4 9:4 10:6 11:6 15:3 16:1 20:5 22:1 23:1 24:1 253:0
0 1:12 2:12 4:5 5:6 6:2 9:7 11:6 15:3 16:1 20:3 29:2 38:1 39:1 40:1 62:2 72:1 92:4 93:1 253:0
0 1:12 2:12 4:5 5:3 6:4 9:2 10:3 11:1 14:4 15:3 20:2 253:0
0 1:12 2:12 4:4 6:4 9:2 10:2 11:1 15:1 20:1 22:1 23:1 24:1 29:4 33:8 34:4 253:0
0 1:6 2:6 4:15 6:4 10:14 12:2 13:1 15:6 16:2 20:6 22:1 23:2 24:3 62:2 93:1 107:2 253:0
0 1:9 2:8 4:7 5:5 6:5 9:8 10:5 11:5 23:2 24:1 26:2 27:1 28:3 29:3 35:1 42:2 43:1 44:2 102:1 142:1 253:0
0 1:12 2:12 4:2 5:1 6:2 9:5 11:2 15:2 16:1 20:1 22:1 23:1 28:1 29:6 32:1 33:2 34:1 253:0
0 1:12 2:12 4:6 5:5 6:6 9:8 10:3 11:7 23:2 24:2 28:2 29:4 33:2 34:4 35:1 90:1 91:1 98:1 99:2 112:3 113:3 253:0
0 1:12 2:12 4:5 5:4 6:2 9:9 10:2 11:9 12:2 13:1 15:1 20:1 22:1 23:2 24:3 29:6 33:4 34:2 41:1 253:0
0 1:7 2:4 3:4 4:8 5:8 6:5 7:6 8:2 9:9 10:3 11:7 15:2 16:1 20:2 23:1 24:1 25:1 28:1 29:1 36:3 37:1 42:2 43:1 44:2 66:1 94:2 95:1 96:1 102:2 253:0
0 4:14 5:4 9:4 10:14 11:6 15:2 16:1 20:3 22:1 23:1 24:1 253:0
0 1:16 2:15 3:2 4:7 5:3 6:4 7:2 8:1 9:6 10:7 11:3 14:6 15:4 16:2 20:2 23:2 24:1 28:3 29:3 33:6 34:3 35:1 36:1 253:0
0 1:6 2:6 4:6 5:5 6:2 9:3 10:4 11:1 15:3 16:1 20:2 22:2 23:3 24:3 28:1 253:0
0 4:4 5:2 9:1 10:3 12:1 13:1 15:1 20:1 22:1 23:1 24:1 253:0
0 4:24 10:35 12:5 13:2 15:4 16:1 20:7 22:1 23:3 24:5 34:1 112:2 253:0
0 1:12 2:12 4:4 5:3 6:2 9:4 11:3 14:4 15:4 16:2 20:2 23:1 24:1 27:2 28:1 29:2 74:1 76:2 97:1 104:1 115:1 116:1 117:1 253:0
0 1:12 2:12 4:1 5:1 6:2 9:3 11:3 14:2 15:1 23:1 24:1 26:4 27:2 28:1 29:2 62:2 63:2 64:4 65:1 92:2 93:1 100:1 253:0
0 1:8 2:6 3:4 4:5 5:2 7:4 8:2 9:8 10:4 11:6 14:4 15:4 16:2 22:2 23:2 28:2 32:2 66:4 253:0
0 4:27 10:41 12:5 13:2 15:4 16:1 20:7 22:1 23:3 24:5 34:2 112:5 253:0
0 1:8 2:5 3:7 4:9 5:4 6:4 7:7 8:3 9:5 10:6 11:4 15:1 20:1 29:2 36:2 37:1 74:1 94:3 95:1 105:2 253:0
0 1:8 2:9 3:3 4:1 6:2 7:2 8:1 15:1 20:1 253:0
0 1:2 2:1 3:5 4:4 5:1 7:8 8:4 9:2 10:3 15:5 16:1 20:8 29:1 32:1 36:1 37:3 50:1 51:3 52:3 53:3 66:2 82:1 253:0
0 1:8 2:8 3:5 4:9 5:7 6:2 7:8 8:4 9:11 10:3 11:9 23:2 24:1 25:4 28:3 29:1 35:1 36:3 37:2 66:2 118:2 119:1 253:0
0 1:12 2:12 4:1 5:1 6:2 9:2 23:1 24:1 28:1 29:2 58:1 59:1 60:1 61:2 62:1 63:2 64:2 65:1 92:2 253:0
0 4:3 5:1 9:5 10:2 11:2 35:2 39:4 40:2 253:0
0 1:6 2:6 4:3 5:2 6:2 9:1 10:2 14:2 15:2 20:1 22:1 23:1 24:1 30:4 31:2 253:0
0 1:6 2:6 3:4 4:8 5:5 6:2 7:4 8:2 9:5 10:4 11:4 15:2 16:1 20:2 22:1 23:2 24:2 28:1 29:2 37:1 90:1 91:1 253:0
0 1:6 2:6 4:7 5:3 6:2 9:4 10:2 11:3 14:2 15:4 16:2 20:3 22:1 23:1 24:1 29:2 253:0
0 1:12 2:12 4:3 5:1 6:4 7:3 8:1 9:3 11:3 14:2 15:2 16:1 19:1 20:1 21:1 25:3 37:1 69:1 70:1 71:1 136:1 253:0
0 4:5 10:4 15:6 16:1 20:9 55:1 253:0
0 4:1 15:2 20:2 22:2 23:2 24:2 253:0
0 4:27 10:42 15:3 20:5 22:1 23:1 24:1 253:0
0 1:6 2:6 4:9 5:5 6:4 9:5 10:5 11:4 23:1 24:1 28:1 29:2 253:0
0 1:12 2:12 4:7 5:4 6:2 9:5 10:5 11:4 12:4 13:1 15:1 20:1 22:1 23:2 24:2 26:2 27:1 28:1 29:4 253:0
0 1:6 2:6 4:1 5:1 6:2 9:1 14:2 15:1 253:0
0 1:6 2:6 4:5 5:3 6:4 9:2 10:3 11:1 118:1 119:1 253:0
0 1:4 2:2 3:5 4:10 5:4 6:1 7:5 8:2 9:3 10:10 11:1 25:1 29:1 36:1 37:1 94:3 95:1 253:0
0 1:6 2:6 4:5 5:4 6:2 9:8 10:4 11:7 14:4 15:5 16:2 20:2 22:2 23:2 28:2 32:2 253:0
0 1:12 2:12 4:2 6:4 10:1 14:4 15:2 26:4 27:2 253:0
0 4:9 5:10 9:9 10:7 11:6 23:2 24:1 28:3 35:1 63:2 65:1 74:1 84:2 86:4 97:2 137:1 172:1 253:0
0 1:1 3:2 4:3 5:2 6:1 7:4 8:2 9:7 10:1 11:6 15:1 20:2 23:2 24:1 25:1 28:3 29:1 35:1 36:1 37:1 66:2 253:0
0 1:12 2:12 4:5 5:4 9:8 10:1 11:7 15:4 16:2 20:3 22:1 23:2 24:1 28:2 29:6 32:1 62:2 92:4 93:1 253:0
0 4:2 5:2 9:4 11:2 12:2 13:1 23:1 24:1 28:1 35:1 41:1 98:1 99:2 253:0
0 1:6 2:6 4:11 5:10 6:4 9:7 10:9 11:6 14:4 15:4 16:2 23:1 24:1 28:1 34:1 112:1 253:0
0 4:5 10:4 15:4 20:8 23:1 24:1 253:0
0 4:1 15:2 16:1 20:1 27:2 34:2 76:2 104:1 111:2 112:2 113:1 253:0
0 1:8 2:7 3:2 4:5 5:3 6:6 7:4 8:2 9:2 10:4 33:4 34:2 37:1 38:1 39:1 40:1 62:2 93:1 100:1 107:1 149:1 253:0
0 1:6 2:6 4:3 6:4 14:2 15:3 16:1 20:2 22:2 23:2 24:2 34:3 112:3 113:3 253:0
0 1:12 2:12 4:7 5:1 6:6 9:6 10:6 11:4 12:3 13:2 14:2 15:2 16:1 23:2 24:1 28:3 29:4 35:1 41:1 58:1 59:1 60:1 61:2 62:1 63:2 64:2 65:1 253:0
0 1:12 2:12 4:2 5:2 6:2 9:4 11:6 14:2 15:2 16:1 20:1 253:0
0 1:6 2:6 4:3 5:2 6:4 9:4 10:1 11:3 35:1 39:2 40:1 253:0
0 4:23 10:37 12:2 13:1 15:2 20:3 23:1 24:2 54:1 253:0
0 1:9 2:8 4:9 5:2 6:7 9:3 10:6 11:3 12:4 13:1 23:1 24:2 42:2 43:1 44:2 102:1 253:0
0 1:6 2:6 4:10 5:5 6:4 9:5 10:6 11:4 23:1 24:1 28:1 29:2 253:0
0 1:10 2:9 3:2 7:2 8:1 9:4 29:6 36:2 127:2 128:1 253:0
0 1:6 2:6 4:14 5:3 6:2 9:3 10:17 11:3 15:2 16:1 20:2 22:1 23:1 24:1 253:0
0 1:12 2:10 3:4 4:5 5:3 6:5 7:4 8:1 9:5 10:2 11:4 14:2 15:3 16:1 20:2 23:1 24:1 25:1 27:1 28:1 29:3 34:2 36:1 94:2 95:1 111:2 113:1 181:2 229:1 253:0
0 1:5 2:3 3:4 4:12 5:1 6:4 7:4 8:1 9:4 10:9 11:3 14:2 15:5 16:2 20:4 22:2 23:2 24:1 25:4 28:1 32:1 66:1 94:2 95:2 96:1 144:1 253:0
0 4:22 10:32 12:3 13:1 15:1 20:3 23:1 24:2 118:1 119:1 253:0
0 1:1 3:1 4:1 5:2 7:2 8:1 9:6 11:4 23:1 28:2 29:1 35:1 36:1 42:1 43:1 44:2 45:1 74:1 97:1 115:1 116:1 117:1 142:2 253:0
0 1:6 2:6 4:8 5:3 6:2 9:3 10:4 11:3 15:4 16:2 20:4 22:1 23:1 24:1 253:0
0 4:10 5:2 9:2 10:9 11:1 12:5 13:2 15:2 23:1 24:1 28:1 41:1 50:1 51:3 52:3 53:3 55:1 74:1 75:1 82:1 97:2 253:0
0 1:12 2:12 4:8 5:3 6:2 9:5 10:7 11:4 14:2 15:4 16:1 20:6 23:1 24:1 26:2 27:1 28:1 29:4 33:6 34:3 253:0
0 4:8 5:2 9:3 10:9 11:1 15:4 16:2 20:2 22:2 23:2 28:2 32:2 253:0
0 1:14 2:13 3:2 4:2 6:4 7:4 8:2 9:6 11:3 14:4 15:4 16:2 22:1 23:1 28:1 29:7 32:1 33:2 34:1 36:3 37:1 253:0
0 1:1 3:2 4:9 5:4 6:1 7:4 8:2 9:6 10:8 11:1 15:3 16:1 20:3 22:1 23:2 24:2 25:1 28:1 29:1 35:1 36:1 37:1 38:1 39:2 40:1 66:2 253:0
0 1:15 2:14 4:10 6:10 10:6 15:6 16:1 20:11 33:2 34:1 42:2 43:1 44:2 102:2 253:0
0 4:6 5:4 9:3 10:4 11:3 15:5 20:8 253:0
0 1:8 2:9 3:3 4:7 5:4 6:4 7:2 8:1 9:4 10:5 11:3 12:1 13:1 23:2 24:2 28:2 253:0
0 4:6 5:2 9:4 10:8 11:2 23:3 24:2 28:4 35:1 253:0
0 1:2 2:1 3:2 4:7 5:1 7:4 8:2 9:4 10:5 11:3 15:5 16:2 20:8 22:1 23:2 24:1 28:1 29:1 32:1 36:3 37:1 62:2 92:2 93:1 100:1 109:1 253:0
0 1:6 2:6 9:3 23:1 28:2 29:2 35:1 58:1 59:1 60:1 61:2 62:1 63:2 64:2 65:1 92:2 253:0
0 1:3 2:3 3:4 4:11 5:6 7:6 8:2 9:6 10:8 11:4 15:2 16:1 20:3 29:1 34:3 36:3 37:2 58:1 59:1 60:1 61:2 62:1 63:2 64:2 65:1 94:2 95:1 107:1 112:3 113:3 253:0
0 1:10 2:6 3:8 4:6 5:1 6:6 7:8 8:4 9:2 10:5 11:1 23:1 24:1 25:2 28:1 29:1 33:2 34:1 36:1 253:0
0 1:12 2:12 4:7 5:3 6:6 9:3 10:4 11:3 14:6 15:4 16:2 23:1 24:2 253:0
0 1:6 2:6 4:2 6:2 12:2 13:1 14:2 15:2 16:1 20:1 22:1 23:1 24:1 253:0
0 1:12 2:12 4:5 5:5 6:4 9:6 10:1 11:6 12:2 13:1 15:2 16:1 20:3 23:2 24:2 26:2 27:1 28:2 29:2 32:1 54:1 253:0
0 4:17 5:8 9:7 10:21 11:5 23:2 24:1 28:3 35:1 253:0
0 1:14 2:13 3:2 4:4 6:4 7:2 9:2 10:2 14:2 15:4 16:1 20:4 23:1 24:2 29:3 33:2 34:1 36:1 66:1 94:2 95:1 96:1 253:0
0 1:12 2:12 4:9 5:4 6:4 9:6 10:5 11:4 12:6 13:2 15:4 16:2 20:3 22:2 23:2 24:2 29:2 41:2 74:1 97:1 115:1 116:1 117:1 253:0
0 1:6 2:6 4:9 5:3 6:2 9:3 10:5 11:3 14:6 15:12 16:6 20:7 22:1 23:1 24:1 253:0
0 4:7 5:4 9:3 10:6 11:3 15:1 20:1 22:1 23:2 24:2 28:1 62:1 107:1 253:0
0 1:7 2:6 3:2 4:6 6:5 7:4 8:2 10:6 14:2 15:1 25:1 37:1 253:0
0 1:7 2:8 3:1 4:1 6:1 7:1 17:2 19:1 25:1 59:1 60:1 61:2 62:1 63:2 64:2 65:1 69:1 70:1 71:1 107:1 253:0
0 1:10 2:9 3:2 4:5 6:4 7:2 8:1 9:3 10:4 11:3 14:3 15:4 16:2 29:1 32:1 36:1 98:1 99:1 103:1 187:1 253:0
0 1:6 2:6 4:10 5:5 6:2 9:3 10:11 11:3 12:1 13:1 15:2 16:1 20:1 22:1 23:1 24:1 33:2 34:1 68:1 184:1 253:0
0 1:6 2:6 4:13 5:7 6:6 9:6 10:12 11:6 23:1 24:1 28:1 253:0
0 1:7 2:6 3:2 4:1 6:3 7:4 8:1 9:2 25:1 26:4 27:2 29:1 36:3 37:1 94:2 95:1 253:0
0 1:6 2:6 4:9 5:1 6:2 9:3 10:11 11:3 14:2 15:3 16:1 20:3 253:0
0 1:11 2:11 3:8 4:3 5:2 7:10 8:5 9:4 10:3 11:2 29:3 36:3 37:3 253:0
0 4:4 5:3 9:5 10:2 11:3 12:3 13:2 23:2 24:2 28:2 41:2 253:0
0 4:10 5:2 9:4 10:12 11:2 12:3 13:1 23:3 24:2 28:4 35:1 253:0
0 1:4 2:3 3:2 4:3 6:2 7:2 8:1 10:1 14:2 15:1 25:2 253:0
0 1:14 2:15 3:3 4:8 5:4 6:5 7:2 8:1 9:3 10:9 11:3 14:2 15:2 16:1 23:1 24:1 25:1 26:2 27:1 28:1 33:2 34:1 253:0
0 1:12 2:12 4:8 5:5 6:4 9:4 10:5 11:6 14:4 15:4 16:2 20:2 22:1 23:1 24:1 253:0
0 4:1 9:1 15:2 16:1 20:1 22:1 23:1 28:1 32:1 253:0
0 4:3 10:2 15:2 20:2 22:2 23:2 24:2 62:2 107:4 253:0
0 1:8 2:7 3:1 4:3 5:2 6:3 7:1 9:4 11:2 12:2 13:1 15:1 17:1 19:1 20:1 21:1 23:1 24:1 28:1 29:1 36:1 41:1 54:1 58:2 59:1 60:1 61:2 62:1 63:2 64:2 65:1 69:1 70:1 71:1 92:2 253:0
0 1:8 2:7 3:2 4:5 5:1 6:3 7:8 8:3 9:1 10:6 15:1 20:3 25:1 33:6 34:3 37:3 66:1 94:2 95:1 96:1 253:0
0 1:3 2:2 4:6 5:4 6:3 9:4 10:2 11:2 15:2 16:1 20:1 22:1 23:2 24:2 28:1 29:2 42:2 43:1 44:2 102:1 253:0
0 1:6 2:6 4:1 6:2 15:1 20:1 26:4 27:2 253:0
0 1:8 2:6 3:4 4:5 5:3 6:4 7:4 8:2 9:5 10:3 11:4 23:1 24:1 28:1 29:4 36:2 253:0
0 4:3 5:3 9:1 10:3 56:2 57:2 62:1 63:2 64:2 65:1 84:1 85:1 86:2 107:1 135:1 253:0
0 1:6 2:6 4:6 5:2 6:2 9:5 10:7 11:2 29:2 35:1 38:1 39:2 40:1 90:1 91:2 157:1 253:0
0 1:12 2:12 3:7 4:6 5:2 6:3 7:7 8:3 9:1 10:2 14:5 15:6 16:3 20:4 22:1 23:1 24:1 25:1 33:2 34:1 37:1 94:3 95:1 103:1 253:0
0 1:18 2:18 4:6 5:8 6:4 9:11 10:2 11:10 23:1 28:2 29:4 35:1 253:0
0 1:4 2:2 3:4 4:10 5:3 6:3 7:4 9:5 10:8 11:2 15:4 16:2 20:3 22:1 23:2 24:1 25:3 28:2 29:1 32:1 36:1 66:1 94:4 95:2 96:1 253:0
0 4:14 5:5 9:5 10:18 11:4 15:2 16:1 20:2 23:1 24:1 28:1 253:0
0 1:12 2:12 4:2 5:3 9:6 10:1 11:6 23:1 24:1 28:1 29:4 62:2 92:4 93:1 253:0
0 1:16 2:14 3:10 4:3 5:2 6:3 7:9 8:5 9:5 11:4 15:2 16:1 20:2 25:1 29:5 36:1 37:1 94:2 95:1 253:0
0 4:5 10:4 34:14 112:22 113:10 253:0
0 1:9 2:8 3:3 4:9 5:8 6:2 7:5 8:1 9:9 10:6 11:9 14:2 15:4 16:2 20:1 23:1 24:1 28:1 29:1 36:1 37:2 94:5 95:2 103:2 253:0
0 4:21 10:30 12:4 13:1 15:1 20:3 23:1 24:2 118:1 119:1 253:0
0 1:12 2:12 4:5 5:2 6:2 9:2 10:2 11:1 14:4 15:6 16:3 20:6 253:0
0 1:4 2:3 3:2 7:2 8:1 62:1 74:1 92:1 105:2 110:1 253:0
0 4:8 10:8 12:5 13:2 253:0
0 1:6 2:6 4:7 5:1 6:2 9:3 10:4 11:1 14:2 15:4 16:2 20:3 22:2 23:2 24:2 35:1 39:2 40:1 253:0
0 1:6 2:6 4:7 5:6 6:2 9:9 10:3 11:9 12:2 13:1 14:2 15:3 16:1 20:2 22:1 23:2 24:3 29:4 33:2 34:1 41:1 253:0
0 4:11 5:4 9:4 10:10 11:2 15:9 16:3 20:16 23:1 24:2 55:2 253:0
0 1:15 2:16 3:3 4:11 6:7 7:2 8:1 10:9 12:2 13:1 15:3 20:5 22:1 23:1 24:1 25:1 33:2 34:1 253:0
0 1:8 2:9 3:3 4:7 5:5 6:2 7:2 8:1 9:3 10:5 11:1 15:2 20:2 22:2 23:3 24:3 28:1 253:0
0 1:6 2:6 4:11 5:10 9:10 10:11 11:8 23:3 24:2 28:4 29:2 33:4 34:2 35:1 253:0
0 1:12 2:12 4:9 5:3 6:4 9:3 10:8 11:3 15:1 20:3 23:1 24:2 30:2 31:1 33:2 34:1 253:0
0 4:2 12:2 13:2 62:2 63:1 64:1 107:2 139:2 140:1 185:1 253:0
0 1:11 2:14 4:7 5:2 6:2 9:3 10:6 11:3 12:2 13:1 118:2 119:1 253:0
0 1:12 2:12 4:9 5:5 6:6 9:3 10:6 11:3 14:2 15:2 20:1 253:0
0 1:12 2:12 4:6 5:3 6:4 9:2 10:4 11:1 14:2 15:3 16:1 20:2 23:1 24:2 253:0
0 1:13 2:12 3:2 4:2 6:6 7:4 8:2 14:4 15:4 16:2 25:2 37:1 62:2 63:2 64:4 65:1 93:1 110:2 253:0
0 1:9 2:8 3:2 4:9 5:2 6:3 7:2 9:3 10:6 11:3 14:2 15:4 16:2 20:3 22:1 23:1 24:1 25:1 29:1 36:1 94:2 95:1 253:0
0 1:10 2:9 3:2 4:2 5:1 6:4 7:2 8:1 9:1 14:4 15:3 16:1 23:1 24:1 28:1 40:1 72:1 88:1 89:1 114:1 253:0
0 4:8 10:10 15:4 16:2 20:6 22:2 23:2 24:2 253:0
0 1:3 2:2 3:2 4:8 5:3 6:6 7:2 8:1 9:4 10:2 11:3 12:4 13:2 15:2 20:2 23:2 24:4 25:2 41:1 66:2 253:0
0 1:9 2:10 3:3 4:13 5:6 6:5 7:2 8:1 9:5 10:8 11:4 12:6 13:2 15:3 16:1 20:5 22:1 23:2 24:2 25:1 28:1 41:1 253:0
0 1:6 2:6 4:8 5:4 6:4 9:3 10:6 11:3 23:1 24:1 26:2 27:1 28:1 59:1 60:1 61:2 62:1 63:2 64:2 65:1 92:2 253:0
0 1:6 2:6 4:5 6:4 10:3 12:3 13:1 23:2 24:4 253:0
0 1:6 2:6 4:7 5:6 6:4 9:10 10:3 11:9 12:1 13:1 23:2 24:1 28:3 33:2 34:1 35:2 41:2 90:1 91:1 253:0
0 1:12 2:12 4:9 5:4 6:4 9:5 10:6 11:4 12:2 13:1 23:1 24:1 28:1 29:2 253:0
0 9:2 35:1 39:2 40:1 88:1 114:1 253:0
0 4:14 5:6 9:5 10:13 11:4 15:6 16:1 20:11 23:1 24:1 28:1 62:2 93:1 107:1 108:1 253:0
0 1:4 2:2 3:7 4:7 5:3 6:2 7:12 8:6 9:5 10:3 11:3 15:4 16:2 20:6 25:4 29:1 36:3 37:4 66:2 253:0
0 1:1 3:1 4:3 5:1 6:1 7:2 8:1 9:4 10:1 25:1 35:1 36:1 38:1 39:3 40:2 42:1 43:1 44:2 45:1 59:2 61:4 62:2 63:2 65:1 72:1 93:1 107:2 142:1 171:1 199:1 253:0
0 1:6 2:6 4:8 6:2 10:7 12:4 13:1 14:4 15:3 16:1 20:1 22:1 23:1 24:1 59:1 61:2 63:2 65:1 83:1 84:1 86:2 158:1 253:0
0 1:6 2:6 4:3 5:2 6:2 9:2 10:1 11:1 14:2 15:2 20:2 253:0
0 4:12 5:5 9:3 10:11 11:1 12:11 13:4 23:1 24:1 28:1 41:1 253:0
0 1:6 2:6 9:3 29:2 35:1 58:1 59:1 60:1 61:2 62:1 63:2 64:2 65:1 92:2 98:1 99:2 253:0
0 1:10 2:9 3:2 4:5 5:5 6:6 7:2 8:1 9:6 10:2 11:6 29:1 36:1 253:0
0 1:6 2:6 4:9 5:4 6:2 9:2 10:7 11:1 12:2 13:1 14:4 15:4 16:2 20:3 22:1 23:1 24:1 253:0
0 1:12 2:12 4:10 5:9 6:8 9:8 10:3 11:7 14:2 15:4 16:2 20:3 23:3 24:3 28:3 253:0
0 4:12 5:1 9:1 10:17 12:3 13:1 15:1 20:1 22:1 23:1 24:1 253:0
0 1:9 2:8 3:2 4:6 5:8 6:3 7:2 8:1 9:6 10:4 11:4 23:4 24:4 25:1 28:4 30:2 31:1 33:2 34:1 66:2 253:0
0 1:6 2:6 4:12 5:7 6:4 9:6 10:10 11:6 23:2 24:2 28:2 253:0
0 4:6 5:6 9:6 10:2 11:6 23:2 24:2 28:2 31:2 124:2 253:0
0 4:6 5:2 9:3 10:4 11:3 15:1 20:1 46:2 47:2 48:2 49:4 50:2 51:4 52:4 53:2 151:2 166:1 253:0
0 1:12 2:12 4:3 5:1 6:4 9:2 11:1 12:1 13:1 14:8 15:9 16:4 20:1 22:1 23:1 24:1 29:2 62:2 63:2 64:4 65:1 93:1 106:1 107:1 253:0
0 4:3 10:1 15:2 16:1 20:2 22:1 23:2 24:3 253:0
0 4:1 15:1 20:1 22:1 23:1 24:1 253:0
0 1:4 2:2 3:4 4:5 5:2 6:4 7:6 8:2 9:4 10:1 11:3 12:3 13:1 23:1 24:1 25:2 28:1 29:1 36:3 37:1 94:2 95:1 253:0
0 1:12 2:10 3:7 4:5 5:5 6:5 7:8 8:3 9:7 11:6 25:3 26:4 27:2 29:2 37:2 66:1 94:2 95:1 96:1 253:0
0 1:6 2:6 4:10 5:3 6:2 9:2 10:8 11:1 14:2 15:5 16:2 20:5 253:0
0 1:10 2:10 3:3 4:8 5:2 6:1 7:3 9:3 10:6 11:3 14:3 15:4 16:2 17:2 19:1 20:2 25:1 29:1 36:1 69:1 70:1 71:1 94:2 95:1 103:1 253:0
0 1:12 2:12 4:4 6:4 10:4 14:6 15:4 16:1 20:1 253:0
0 1:6 2:6 4:10 5:1 6:2 9:2 10:10 11:1 15:5 16:2 20:4 22:3 23:3 24:2 26:2 27:1 28:1 32:1 55:1 253:0
0 1:6 2:6 4:2 5:1 6:2 9:1 10:1 88:1 114:1 253:0
0 1:6 2:6 4:2 9:1 10:1 14:4 15:7 16:3 20:4 22:1 23:1 28:1 32:1 253:0
0 1:12 2:12 4:3 5:2 9:6 10:3 11:6 29:4 62:2 92:4 93:1 253:0
0 4:2 62:4 63:4 64:4 65:2 84:2 85:2 86:4 107:4 139:2 140:1 253:0
0 1:6 2:6 4:18 5:3 6:6 9:1 10:20 15:1 20:1 253:0
0 1:12 2:12 4:10 6:6 10:9 14:8 15:7 16:3 20:5 253:0
0 4:16 5:10 9:8 10:15 11:7 15:2 16:1 20:1 22:1 23:2 24:1 28:2 32:1 253:0
0 4:7 5:4 9:5 10:6 11:2 35:1 39:2 40:1 253:0
0 1:8 2:9 3:3 4:7 5:5 6:2 7:2 8:1 9:3 10:5 11:1 15:2 20:2 22:2 23:3 24:3 28:1 253:0
0 1:4 2:3 3:2 4:7 5:3 6:4 7:2 8:1 9:3 10:6 11:3 14:2 15:2 16:1 20:1 23:1 24:1 28:1 34:2 90:1 91:1 112:2 113:1 253:0
0 1:12 2:12 4:6 5:2 6:4 9:2 10:4 11:1 14:6 15:4 20:2 253:0
0 1:2 2:1 3:5 4:4 5:1 7:8 8:4 9:2 10:3 15:7 16:2 20:8 29:1 32:1 36:1 37:3 66:2 103:2 253:0
0 1:12 2:12 4:4 5:6 9:9 10:1 11:9 26:2 27:1 29:4 62:2 92:4 93:1 253:0
0 1:9 2:8 3:2 4:12 5:6 6:8 7:2 8:1 9:7 10:5 11:5 12:4 13:1 23:2 24:2 25:2 28:2 29:2 33:2 34:1 253:0
0 1:6 2:6 4:1 5:2 9:4 11:2 26:2 27:2 29:2 35:1 58:2 59:2 60:2 61:4 62:2 63:4 64:4 65:2 76:1 92:4 253:0
0 1:6 2:6 4:6 5:2 9:3 10:6 11:1 23:2 24:2 28:2 29:2 88:1 114:3 253:0
0 1:17 2:20 4:10 5:8 6:8 9:8 10:4 11:7 15:2 16:1 20:2 23:3 24:3 28:3 29:2 253:0
0 1:8 2:9 3:3 4:10 5:6 6:4 7:2 8:1 9:6 10:8 11:4 12:3 13:1 15:1 20:1 23:1 24:1 28:1 66:2 253:0
0 1:6 2:6 3:2 7:2 8:1 9:1 14:2 15:2 16:1 34:3 36:1 42:2 43:1 44:2 45:1 111:3 113:3 142:1 253:0
0 1:10 2:9 3:2 4:6 6:8 7:2 8:1 9:1 10:4 14:3 15:3 16:1 20:1 22:1 23:2 24:3 29:1 36:1 103:1 253:0
0 4:16 10:19 12:8 13:3 15:2 16:1 20:3 22:1 23:2 24:3 253:0
0 4:18 10:18 12:4 13:2 15:5 16:1 20:8 22:1 23:1 24:1 54:1 253:0
0 1:12 2:12 4:4 5:5 6:4 9:5 10:1 11:4 15:2 16:1 20:3 23:1 24:1 26:4 27:2 28:1 29:2 32:1 253:0
0 4:25 10:36 12:3 13:1 15:2 16:1 20:4 22:1 23:3 24:4 62:2 93:1 107:3 109:1 253:0
0 4:7 9:2 10:10 15:4 16:2 20:2 22:2 23:2 28:2 32:2 253:0
0 4:20 5:12 9:9 10:26 11:6 23:4 24:4 28:4 34:3 90:1 91:1 112:3 113:3 253:0
0 1:9 2:10 3:7 4:3 5:1 7:6 8:3 9:2 10:3 29:1 36:1 37:1 66:2 253:0
0 4:19 10:20 12:4 13:2 15:4 20:8 22:1 23:1 24:1 253:0
0 1:6 2:6 4:10 5:7 6:4 9:8 10:6 11:7 12:2 13:1 15:1 20:1 22:1 23:2 24:3 29:4 33:2 34:1 41:1 253:0
0 4:1 9:1 15:2 16:1 20:1 32:1 58:1 59:1 60:1 61:2 62:1 63:2 64:2 65:1 107:1 253:0
0 1:12 2:12 4:3 6:4 10:1 12:2 13:1 14:2 15:2 16:1 20:1 23:1 24:2 54:1 253:0
0 1:8 2:6 3:4 4:4 5:1 6:6 7:8 8:3 9:3 12:1 13:1 23:1 24:1 25:2 28:1 29:1 34:6 36:1 37:2 41:1 66:1 88:1 94:2 95:1 96:1 112:6 113:6 114:2 253:0
0 1:12 2:12 4:3 5:3 6:6 9:5 11:3 23:1 24:1 28:1 29:4 38:1 39:1 40:1 72:1 253:0
0 63:1 84:2 86:2 137:1 244:1 245:1 246:2 253:0
0 1:12 2:12 4:11 5:3 6:6 9:2 10:8 11:1 15:3 16:1 20:3 22:2 23:3 24:3 28:1 253:0
0 1:12 2:10 3:5 4:7 5:7 6:5 7:6 8:2 9:10 10:4 11:8 23:1 25:3 28:2 29:2 35:1 36:2 37:1 42:3 43:1 44:2 94:2 95:1 253:0
0 1:8 2:9 3:3 4:12 5:6 6:3 7:2 8:1 9:4 10:13 11:3 15:3 16:1 20:3 22:1 23:1 24:1 25:1 32:1 66:2 253:0
0 4:5 5:2 9:5 10:3 11:4 12:1 13:1 15:4 16:1 20:6 23:2 24:1 28:3 32:1 34:1 35:1 41:1 68:1 112:2 167:1 184:1 253:0
0 1:6 2:6 4:10 5:5 6:4 9:5 10:6 11:4 12:3 13:2 15:4 16:2 20:3 23:1 24:2 54:3 58:2 59:1 60:1 61:2 62:1 63:2 64:2 65:1 253:0
0 1:6 2:6 4:10 5:4 6:2 9:3 10:10 11:3 15:5 16:2 20:8 22:1 23:1 24:1 253:0
0 1:8 2:6 3:4 4:5 6:4 7:4 8:2 10:7 23:1 24:2 253:0
0 1:12 2:12 4:5 5:2 6:4 9:3 10:5 11:3 253:0
0 1:12 2:12 4:4 5:3 6:4 9:3 10:2 11:3 253:0
0 1:1 3:2 4:1 5:1 6:1 7:4 8:2 9:5 11:2 23:2 24:1 25:1 28:3 29:1 35:1 36:1 37:1 66:2 253:0
0 1:12 2:12 4:10 5:2 6:6 9:2 10:5 11:1 14:2 15:7 16:2 20:7 26:4 27:2 253:0
0 1:6 2:6 4:9 5:7 9:5 10:7 11:4 14:2 15:3 16:1 20:3 22:1 23:3 24:3 28:2 62:2 93:1 100:1 107:4 253:0
0 1:14 2:12 3:5 4:6 5:1 6:9 7:7 8:4 9:2 10:3 11:1 14:4 15:4 16:2 20:2 25:1 29:1 33:2 34:1 36:1 37:2 94:2 95:1 253:0
0 1:12 2:10 3:4 4:9 5:7 6:5 7:4 8:1 9:6 10:8 11:3 14:3 15:2 16:1 23:1 24:1 25:1 26:2 27:1 28:1 29:1 36:1 66:1 91:1 94:2 95:1 96:1 103:1 157:1 253:0
0 1:6 2:6 4:9 5:3 6:2 9:2 10:7 11:1 15:2 16:1 20:3 22:1 23:1 24:1 253:0
0 4:1 5:1 9:5 11:6 15:2 16:1 20:1 22:1 23:1 28:1 32:1 253:0
0 1:1 3:1 4:2 5:2 7:1 9:3 11:1 15:2 16:1 17:1 19:1 20:2 29:1 70:1 71:1 87:1 88:1 94:1 95:1 114:2 153:1 169:1 170:1 253:0
0 4:23 10:35 12:3 13:1 23:2 24:4 253:0
0 1:12 2:12 4:5 5:2 6:4 9:6 10:3 11:6 29:4 74:1 97:3 253:0
0 1:12 2:12 4:4 5:1 6:4 7:4 8:1 9:2 10:1 25:4 26:4 27:2 29:2 37:2 38:1 40:1 66:2 72:2 94:2 95:1 253:0
0 1:4 2:3 3:2 4:2 5:1 6:1 7:2 8:1 9:2 10:1 11:1 25:1 253:0
0 1:6 2:6 4:7 5:6 6:2 9:8 10:3 11:7 12:2 13:1 15:1 20:1 22:1 23:2 24:3 29:4 33:4 34:2 41:1 253:0
0 1:4 2:3 3:2 4:7 5:1 6:5 7:2 8:1 9:3 10:2 11:3 14:2 15:6 16:2 20:5 22:2 23:2 24:2 25:1 253:0
0 1:12 2:12 4:5 5:2 6:4 9:5 10:4 11:4 15:2 16:1 20:1 22:1 23:1 26:2 27:1 28:1 29:2 32:1 33:2 34:1 253:0
0 4:6 5:3 9:2 10:5 11:1 15:1 20:1 22:1 23:2 24:2 28:1 253:0
0 1:12 2:12 4:4 5:1 6:6 9:2 11:1 14:2 15:2 16:1 23:1 24:1 28:1 29:2 34:3 40:1 72:1 88:1 89:1 112:3 113:3 114:2 253:0
0 1:4 2:3 3:4 4:6 6:1 7:5 8:2 9:1 10:6 15:5 16:1 20:10 25:1 29:1 36:1 37:1 90:1 91:1 94:3 95:1 253:0
0 1:2 3:4 4:1 5:1 6:1 7:4 8:2 9:1 23:1 24:1 25:1 28:1 253:0
0 4:15 5:2 9:2 10:19 11:1 15:1 20:2 23:3 24:4 28:2 253:0
0 1:6 2:6 4:6 5:3 6:2 9:2 10:3 11:1 14:2 15:5 16:2 20:4 253:0
0 1:8 2:7 3:6 4:10 5:9 6:1 7:8 8:4 9:11 10:8 11:8 23:1 24:1 25:1 28:1 29:3 36:3 37:2 66:2 253:0
0 1:12 2:10 3:4 4:5 5:2 6:5 7:4 8:1 9:6 10:1 11:4 15:2 16:1 20:2 25:1 26:2 27:1 29:6 36:2 38:1 40:1 72:2 94:2 95:1 253:0
0 4:2 5:3 9:2 10:1 15:1 20:1 23:1 24:1 28:1 74:1 75:1 97:1 253:0
0 1:8 2:6 3:4 4:8 5:8 6:3 7:4 8:2 9:10 10:1 11:9 14:1 15:5 16:2 20:3 23:1 24:1 25:1 28:1 29:4 38:1 39:1 40:1 72:1 103:1 253:0
0 1:13 2:14 3:3 4:7 5:1 6:2 7:4 8:2 9:3 10:5 11:1 14:4 15:4 16:2 20:1 23:1 24:1 28:1 29:3 36:1 37:1 74:1 97:1 118:1 119:1 253:0
0 1:7 2:8 3:3 4:13 5:8 7:4 8:2 9:8 10:8 11:5 12:5 13:2 15:3 16:1 20:2 22:1 23:1 24:1 29:1 36:1 37:1 38:1 39:1 40:1 41:1 72:1 253:0
0 40:2 247:1 253:0
0 4:23 5:7 9:4 10:34 11:2 12:2 13:1 23:2 24:2 28:2 253:0
0 1:6 2:6 4:4 5:1 6:2 9:2 10:2 11:1 14:4 15:5 16:2 20:1 22:1 23:2 24:3 29:2 40:1 55:1 72:2 88:1 89:1 114:2 253:0
0 4:23 10:35 12:5 13:2 15:2 20:5 23:2 24:4 27:2 76:4 253:0
0 4:22 10:32 12:3 13:1 15:1 20:3 23:2 24:4 253:0
0 1:14 2:15 3:3 4:7 5:4 6:3 7:2 8:1 9:2 10:4 11:1 14:2 15:4 16:2 20:4 22:1 23:1 24:1 25:1 253:0
0 4:6 5:2 9:2 10:8 11:1 23:2 24:2 28:2 253:0
0 227:1 253:0
0 1:6 2:4 3:4 4:9 5:7 6:5 7:6 8:3 9:8 10:4 11:7 14:1 15:2 16:1 23:1 24:1 25:1 28:1 29:3 34:3 36:1 37:1 103:1 112:3 113:3 253:0
0 1:8 2:9 3:3 4:4 5:2 6:2 7:2 8:1 9:2 10:4 11:1 23:2 24:2 28:2 33:2 34:1 253:0
0 1:6 2:6 4:1 7:2 9:2 25:1 29:2 36:1 43:1 44:2 45:2 58:1 59:1 60:1 61:2 62:1 63:2 64:2 65:1 92:2 94:2 95:1 102:1 142:1 253:0
0 1:7 2:8 3:1 4:11 5:7 6:2 7:1 9:10 10:11 11:8 15:4 16:2 17:2 19:1 20:5 22:1 23:4 24:2 28:5 29:3 32:1 33:2 34:1 35:1 36:1 69:1 70:1 71:1 253:0
0 1:11 2:14 4:4 5:3 9:2 10:2 11:1 14:2 15:3 16:1 20:3 253:0
0 1:12 2:12 4:5 5:1 6:4 9:3 10:5 11:3 14:2 15:3 16:1 20:3 62:2 92:4 93:1 253:0
0 1:6 2:6 4:7 5:6 6:4 9:3 10:5 11:1 15:1 20:2 253:0
0 1:13 2:14 3:3 4:4 5:3 7:4 8:2 9:5 10:1 11:4 14:4 15:6 16:3 20:3 26:2 27:1 29:3 33:2 34:1 36:1 37:1 253:0
0 9:6 11:6 62:2 98:2 99:2 100:2 101:2 139:2 140:1 253:0
0 1:4 2:3 3:2 4:1 6:2 7:2 8:1 15:1 20:1 22:1 23:1 24:1 253:0
0 1:8 2:5 3:3 4:9 5:1 6:6 7:4 8:2 9:2 10:6 11:1 15:2 16:1 17:2 18:1 19:2 20:2 21:1 23:2 24:3 25:2 28:1 36:1 42:1 43:1 44:2 45:1 102:1 142:1 253:0
0 1:19 2:18 3:1 4:3 5:1 6:8 7:2 8:1 9:2 11:1 14:8 15:4 23:1 24:1 25:1 28:1 36:1 42:1 43:1 44:2 45:1 102:1 142:1 253:0
0 1:1 3:2 4:3 5:4 7:4 8:2 9:5 11:3 15:2 16:1 20:2 29:1 36:1 37:1 66:2 74:1 97:1 115:1 116:1 117:1 253:0
0 4:3 10:2 15:2 20:2 62:2 63:4 64:4 65:2 83:2 84:2 85:2 86:4 253:0
0 4:21 10:31 12:6 13:2 23:2 24:4 253:0
0 1:1 3:2 4:1 5:1 6:1 7:4 8:2 9:4 11:1 25:1 29:1 35:1 36:1 37:1 38:1 39:2 40:1 98:1 99:1 152:1 253:0
0 1:6 2:6 4:19 5:9 6:4 9:7 10:18 11:6 15:2 20:3 23:2 24:2 28:2 253:0
0 1:20 2:26 3:8 4:7 5:7 6:4 7:4 8:2 9:6 10:4 11:2 15:5 16:2 20:6 23:1 24:1 28:1 32:3 66:4 253:0
0 1:4 2:3 3:2 4:13 5:5 6:2 7:2 8:1 9:6 10:14 11:4 15:1 20:1 22:1 23:3 24:2 28:3 29:1 35:1 36:1 253:0
0 1:4 2:3 3:2 4:3 6:5 7:2 8:1 14:2 15:3 20:2 25:1 253:0
0 1:18 2:17 3:9 4:8 6:6 7:9 8:6 9:1 10:8 15:1 20:3 25:4 29:1 36:1 37:1 253:0
0 1:14 2:12 3:9 4:1 6:3 7:8 8:4 9:3 11:1 25:1 29:4 36:2 253:0
0 1:10 2:9 3:2 4:7 5:4 6:5 7:2 8:1 9:3 10:2 11:3 14:4 15:6 16:2 20:4 23:2 24:2 25:1 28:1 253:0
0 4:1 5:1 9:4 11:1 12:1 13:1 23:1 28:2 34:1 35:1 38:1 39:1 40:1 41:1 72:1 112:1 179:1 253:0
0 1:6 2:6 4:9 5:4 6:4 9:5 10:9 11:4 29:2 253:0
0 1:12 2:12 4:13 5:7 6:6 9:5 10:11 11:4 14:2 15:3 16:1 20:2 22:2 23:4 24:4 28:2 62:2 93:1 100:1 107:4 253:0
0 1:6 2:6 4:12 5:3 6:4 9:3 10:16 11:3 14:4 15:5 16:2 20:5 23:1 24:2 253:0
0 1:12 2:12 4:6 5:3 6:6 9:2 10:2 11:1 15:2 16:1 20:2 22:1 23:1 24:1 34:3 112:3 113:3 253:0
0 1:1 3:1 4:7 5:3 6:2 7:2 8:1 9:3 10:5 11:1 25:1 36:1 42:1 43:1 44:2 45:1 102:1 142:1 253:0
0 1:12 2:12 4:6 6:4 10:4 12:4 13:1 14:4 15:2 253:0
0 1:13 2:12 3:1 4:5 5:1 6:5 7:2 8:1 9:6 10:2 11:3 14:2 15:6 16:3 17:1 18:1 19:2 20:4 21:1 22:1 23:2 28:3 29:4 32:1 35:1 136:1 253:0
0 1:12 2:12 4:11 5:11 6:4 9:9 10:8 11:9 15:1 20:1 23:2 24:2 28:2 253:0
0 1:12 2:12 4:6 5:5 6:2 9:7 10:2 11:6 14:2 15:2 16:1 23:1 24:1 28:1 29:4 38:1 40:1 72:2 253:0
0 4:6 5:4 9:6 10:4 11:4 12:2 13:1 15:3 16:1 20:4 23:2 24:1 28:3 32:1 35:1 41:1 127:1 128:2 216:1 253:0
0 1:3 2:2 4:9 5:7 6:2 9:5 10:8 11:4 15:4 16:1 20:4 22:2 23:4 24:4 28:2 32:1 42:2 43:1 44:2 62:2 93:1 100:1 107:4 253:0
0 1:12 2:12 4:7 5:3 6:4 9:3 10:4 11:3 253:0
0 1:6 2:6 4:2 5:3 6:2 9:6 11:4 23:1 24:1 26:4 27:2 28:1 29:2 35:1 38:1 39:2 40:1 253:0
0 1:16 2:15 3:2 4:9 5:5 6:9 7:2 8:1 9:4 10:6 11:3 14:1 15:3 16:1 20:3 23:1 24:1 25:1 28:1 29:2 103:1 253:0
0 1:12 2:12 4:7 6:4 10:6 12:3 13:1 14:2 15:3 16:1 20:2 22:1 23:2 24:3 54:1 253:0
0 1:6 2:6 4:2 5:1 6:4 9:1 15:1 20:1 22:1 23:1 24:1 253:0
0 1:18 2:18 3:2 4:6 5:3 6:6 7:2 8:1 9:5 10:1 11:4 14:2 15:2 16:1 17:2 18:1 19:2 20:1 21:1 23:2 24:2 25:1 28:2 29:2 33:2 34:1 40:1 72:2 88:1 89:1 114:2 136:1 253:0
0 1:6 2:6 4:11 5:5 6:2 9:4 10:10 11:6 15:5 16:2 20:8 22:1 23:1 24:1 253:0
0 4:3 10:1 12:3 13:2 15:3 16:1 20:2 23:1 24:2 54:3 253:0
0 4:17 10:16 15:4 16:2 20:4 22:2 23:2 24:2 62:1 63:2 64:2 65:1 84:1 85:1 86:2 107:2 253:0
0 1:16 2:13 3:6 4:7 5:1 6:14 7:6 8:2 9:2 10:1 12:2 13:1 23:1 24:2 25:2 58:1 59:1 60:1 61:2 62:1 63:2 64:2 65:1 66:1 94:2 95:1 96:1 107:1 253:0
0 1:14 2:15 3:3 4:7 5:5 6:5 7:2 8:1 9:4 10:4 11:2 15:1 20:2 23:2 24:2 25:1 28:2 33:6 34:3 253:0
0 1:18 2:18 4:4 6:8 10:3 14:8 15:6 16:2 20:4 22:1 23:1 24:1 253:0
0 1:10 2:8 3:4 4:3 5:4 6:4 7:8 8:4 9:8 11:6 15:2 16:1 29:5 36:3 37:2 103:2 253:0
0 4:22 10:32 12:5 13:2 15:1 20:3 23:1 24:2 118:1 119:1 253:0
0 1:14 2:15 4:7 5:2 6:7 9:4 10:5 11:2 15:1 17:3 18:1 19:2 20:1 21:1 23:1 24:1 28:1 29:2 33:2 34:1 58:2 59:1 60:1 61:2 62:1 63:2 64:2 65:1 253:0
0 1:8 2:7 3:2 7:4 8:2 9:2 14:3 15:4 16:2 29:3 36:1 37:1 58:1 59:1 60:1 61:2 62:1 63:2 64:2 65:1 92:2 103:1 253:0
0 1:10 2:9 3:2 4:6 5:4 6:5 7:2 8:1 9:4 10:2 11:3 14:3 15:3 16:1 20:2 23:1 24:1 25:1 28:1 34:4 103:1 112:5 113:3 253:0
0 4:9 5:1 9:1 10:12 15:1 20:1 22:1 23:1 24:1 253:0
0 4:24 5:3 9:1 10:33 12:5 13:2 15:5 16:2 20:7 22:1 23:3 24:5 38:1 40:1 72:1 141:1 253:0
0 1:6 2:6 4:3 5:3 6:2 9:4 11:2 15:1 20:1 22:1 23:2 24:2 28:1 29:2 90:1 91:1 253:0
0 4:7 10:7 15:1 20:1 22:1 23:1 24:1 253:0
0 4:10 5:5 9:6 10:10 11:6 15:3 16:1 20:5 22:1 23:2 24:2 28:1 253:0
0 4:29 10:42 12:6 13:2 15:6 16:2 20:13 22:1 23:2 24:3 253:0
0 1:16 2:13 3:6 4:2 6:4 7:8 8:4 9:1 14:7 15:6 16:3 25:2 29:1 36:1 37:1 58:1 59:1 60:1 61:2 62:1 63:2 64:2 65:1 92:1 103:1 110:1 253:0
0 1:14 2:13 3:6 4:4 5:1 6:7 7:6 8:2 9:2 11:1 23:1 24:1 25:3 28:1 29:2 37:1 94:2 95:1 253:0
0 4:12 5:2 9:5 10:11 11:3 12:1 13:1 15:6 16:3 20:8 22:2 23:3 24:2 28:2 32:1 34:1 35:1 38:1 39:1 40:1 41:1 72:1 112:3 253:0
0 1:14 2:13 3:2 4:5 5:4 6:5 7:2 9:6 11:4 14:4 15:6 16:3 20:3 23:1 24:1 25:1 28:1 29:2 66:1 94:2 95:1 96:1 253:0
0 1:6 2:6 4:17 5:5 6:6 9:4 10:21 11:3 14:2 15:2 20:3 23:2 24:3 28:1 253:0
0 1:3 2:2 4:5 5:5 6:2 9:4 10:2 11:2 15:2 16:1 20:1 42:2 43:1 44:2 58:2 59:2 60:2 61:4 62:2 63:4 64:4 65:2 92:2 121:2 253:0
0 1:10 2:9 3:2 4:5 6:4 7:2 8:1 9:2 11:1 12:2 13:1 14:1 15:6 16:3 20:5 29:2 34:1 103:1 112:1 253:0
0 1:10 2:7 3:6 4:7 5:2 6:4 7:6 8:2 9:6 10:7 11:4 14:4 15:2 16:1 23:2 24:1 25:2 28:3 29:1 35:1 36:1 66:1 94:2 95:1 96:1 253:0
0 4:1 15:1 20:1 22:1 23:1 24:1 27:3 76:3 104:3 253:0
0 1:12 2:12 4:5 5:3 6:6 9:5 10:2 11:4 23:1 24:1 28:1 40:1 72:2 88:1 89:1 114:2 253:0
0 4:16 10:13 12:9 13:3 15:5 16:2 20:3 22:1 23:3 24:5 54:2 253:0
0 1:8 2:6 3:4 4:8 5:7 6:4 7:4 8:2 9:10 10:2 11:8 12:3 13:1 23:2 24:2 25:2 28:2 29:4 253:0
0 1:10 2:6 3:8 4:7 5:4 6:4 7:8 8:4 9:5 10:2 11:4 14:5 15:6 16:3 20:3 23:2 24:2 25:2 28:2 29:1 36:1 103:1 253:0
0 1:12 2:12 4:7 5:7 6:2 9:8 10:2 11:7 14:4 15:4 16:2 20:2 23:1 24:1 26:2 27:1 28:1 29:2 58:2 59:1 60:1 61:2 62:1 63:2 64:2 65:1 92:2 253:0
0 1:12 2:10 3:4 4:7 5:3 6:6 7:6 8:3 9:6 10:3 11:3 14:2 15:2 16:1 23:1 25:2 28:2 29:3 35:1 36:1 37:1 253:0
0 1:6 2:6 4:4 5:1 9:2 10:2 11:1 14:2 15:3 16:1 20:3 23:1 24:1 28:1 29:2 253:0
0 1:6 2:6 4:6 5:3 6:4 9:3 10:3 11:1 14:2 15:2 16:1 20:1 38:1 39:1 40:1 72:1 253:0
0 1:6 2:6 4:7 6:2 10:4 12:3 13:1 14:4 15:7 16:2 20:8 22:1 23:1 24:1 62:2 93:1 107:2 108:1 253:0
0 1:12 2:12 4:8 5:6 6:6 9:8 10:4 11:6 12:3 13:1 14:2 15:2 16:1 23:1 24:1 28:1 33:4 34:2 35:1 38:1 39:2 40:1 41:1 90:1 91:1 253:0
0 1:6 2:6 4:2 5:2 9:4 11:2 12:2 13:1 23:1 24:1 28:1 29:2 41:1 88:1 114:4 253:0
0 4:15 5:1 9:3 10:19 11:3 12:4 13:1 15:3 16:1 20:6 22:1 23:1 24:1 253:0
0 1:12 2:12 4:8 5:8 6:6 9:12 10:3 11:10 23:2 24:2 28:2 29:6 38:1 39:1 40:1 253:0
0 1:12 2:12 4:3 6:6 9:1 10:1 14:4 15:2 23:1 24:2 29:2 74:1 97:1 115:1 116:1 117:1 253:0
0 1:12 2:12 3:4 4:5 5:4 6:4 7:4 8:2 9:6 10:1 11:4 14:2 15:1 23:1 24:2 29:4 37:1 66:2 253:0
0 1:14 2:15 4:5 5:1 6:5 9:3 10:2 11:3 12:3 13:1 14:2 15:2 16:1 17:3 18:1 19:2 20:1 21:1 253:0
0 4:5 5:4 9:2 10:5 15:1 20:1 22:1 23:1 24:1 34:2 112:2 113:1 253:0
0 1:12 2:12 3:4 4:2 6:4 7:4 8:2 9:2 10:1 11:1 15:2 16:1 22:1 23:2 24:2 28:1 32:1 33:2 34:1 36:2 37:1 253:0
0 1:18 2:18 4:4 5:1 6:6 9:2 10:6 11:1 14:4 15:2 23:1 24:1 28:1 29:2 253:0
0 4:5 10:4 15:6 16:2 20:10 74:2 75:1 116:1 117:2 159:1 253:0
0 1:18 2:18 3:4 4:5 5:2 6:10 7:4 8:2 9:3 11:1 15:4 16:1 20:2 22:2 23:2 24:1 28:1 32:1 37:1 39:1 40:1 66:2 72:1 73:1 74:1 75:1 103:2 253:0
0 1:12 2:12 4:9 5:6 6:2 9:6 10:6 11:6 15:2 16:1 20:2 29:2 253:0
0 4:24 10:38 15:1 20:2 23:1 24:2 253:0
0 1:15 2:16 3:3 4:3 5:5 6:2 7:4 8:2 9:8 11:7 14:4 15:4 16:2 17:4 18:1 19:2 29:1 35:1 36:1 37:1 55:1 98:1 99:2 253:0
0 4:7 5:2 9:2 10:8 11:1 15:1 20:1 22:1 23:2 24:2 28:1 253:0
0 4:28 10:46 12:3 13:1 15:2 16:1 20:4 22:1 23:2 24:3 253:0
0 1:8 2:7 3:2 4:1 7:4 8:2 9:1 14:2 15:4 16:2 20:2 36:2 37:1 58:1 59:1 60:1 61:2 62:1 63:2 64:2 65:1 92:2 253:0
0 1:12 2:12 4:5 5:3 6:4 9:3 10:2 11:1 15:2 16:1 20:2 22:1 23:2 24:2 26:2 27:1 28:1 29:2 33:2 34:1 38:1 40:1 72:2 253:0
0 1:12 2:12 4:5 5:3 6:2 9:6 10:2 11:6 14:2 15:4 16:2 20:3 22:1 23:2 24:2 28:1 29:2 62:2 92:2 93:1 107:2 253:0
0 1:12 2:12 4:2 6:4 15:2 16:1 20:2 22:1 23:1 24:1 253:0
0 1:11 2:9 3:7 4:4 5:3 6:5 7:7 8:5 9:4 11:3 15:2 16:1 17:2 18:1 19:2 20:2 23:1 24:1 25:1 28:1 36:1 37:1 136:1 153:1 253:0
0 1:6 2:6 4:1 5:2 9:6 11:2 26:4 27:2 29:4 35:1 38:1 39:2 40:1 253:0
0 1:12 2:12 4:11 5:3 6:6 9:3 10:11 11:3 14:4 15:4 16:2 23:1 24:2 253:0
0 1:6 2:6 4:2 5:1 9:3 11:3 14:2 15:4 16:2 20:3 22:1 23:1 24:1 26:2 27:1 253:0
0 1:16 2:15 3:2 4:6 6:6 7:2 8:1 9:1 10:7 23:1 24:2 26:2 27:1 29:2 58:1 59:1 60:1 61:2 62:1 63:2 64:2 65:1 74:1 92:2 105:2 253:0
0 1:10 2:9 3:2 4:5 5:3 6:4 7:2 8:1 9:3 10:3 11:3 15:1 20:1 23:1 24:1 28:1 253:0
0 1:6 2:6 4:1 5:1 6:2 9:1 59:1 60:1 61:2 62:1 63:2 64:2 65:1 92:2 253:0
0 27:3 104:3 253:0
0 1:9 2:8 3:2 4:6 5:1 6:4 7:2 8:1 9:1 10:5 15:1 20:1 22:1 23:2 24:3 25:2 66:2 253:0
0 1:2 3:4 4:3 6:1 7:4 8:2 10:1 12:3 13:1 25:1 62:2 98:1 101:1 106:1 107:2 139:2 140:1 152:1 253:0
0 4:5 10:7 15:3 20:3 74:6 75:3 116:3 117:6 159:3 253:0
0 1:20 2:23 3:4 7:2 8:1 9:3 11:1 14:2 15:2 16:1 29:6 58:1 59:1 60:1 61:2 62:1 63:2 64:2 65:1 253:0
0 1:6 2:6 4:10 5:4 6:2 9:3 10:10 11:3 15:3 16:1 20:4 22:1 23:1 24:1 253:0
0 1:17 2:18 3:8 4:9 5:3 6:11 7:8 8:3 9:6 10:5 11:2 23:1 24:1 25:1 28:1 29:2 36:2 37:1 66:3 94:2 95:1 96:1 253:0
0 1:6 2:6 4:15 6:2 10:14 12:8 13:2 15:1 20:1 22:1 23:3 24:5 253:0
0 1:18 2:18 4:4 6:8 10:3 14:4 15:4 16:1 20:4 22:1 23:1 24:1 253:0
0 4:8 5:2 9:2 10:9 11:1 253:0
0 1:12 2:12 9:4 11:1 14:2 15:2 16:1 23:1 28:2 29:4 33:10 34:5 35:1 58:1 59:1 60:1 61:2 62:1 63:2 64:2 65:1 92:2 253:0
0 1:12 2:12 4:3 6:4 14:4 15:5 16:2 20:3 22:2 23:2 24:2 74:2 75:1 116:1 117:2 159:1 253:0
0 1:12 2:12 4:4 5:3 6:4 9:3 10:1 11:1 12:2 13:1 14:8 15:9 16:4 20:1 23:1 24:1 28:1 29:2 253:0
0 1:12 2:12 4:5 5:2 6:4 9:8 10:2 11:7 15:2 16:1 20:1 22:1 23:2 24:1 28:2 29:6 32:1 253:0
0 1:12 2:12 4:4 5:1 6:4 9:3 10:3 11:1 15:2 16:1 20:3 26:2 27:1 29:2 32:1 38:1 39:1 40:1 141:1 253:0
0 1:14 2:12 3:8 4:4 5:1 6:8 7:8 8:4 9:2 10:1 11:1 14:1 15:2 16:1 29:1 33:3 34:2 36:1 37:1 103:1 200:1 253:0
0 1:11 2:9 3:4 4:4 5:1 6:5 7:6 8:3 9:2 10:1 14:2 15:6 16:3 20:4 25:1 29:1 34:3 36:1 37:1 66:2 74:1 97:1 103:2 111:3 113:3 115:1 116:1 117:1 253:0
0 1:6 2:6 4:5 5:4 6:2 9:4 10:2 11:2 23:1 24:1 28:1 29:2 253:0
0 4:5 5:2 9:5 10:3 11:4 12:1 13:1 15:4 16:1 20:7 23:2 24:1 28:3 32:1 34:1 35:1 41:1 112:1 179:1 253:0
0 1:4 2:3 3:2 4:3 5:3 6:2 7:2 8:1 9:3 11:3 23:1 24:1 28:1 253:0
0 4:23 10:31 12:6 13:2 15:2 16:1 20:4 22:1 23:3 24:5 253:0
0 4:13 5:4 9:3 10:14 11:1 12:2 13:1 15:2 20:2 22:2 23:3 24:3 28:1 41:1 62:2 93:1 107:2 253:0
0 4:24 10:34 12:5 13:2 15:6 16:2 20:12 23:2 24:4 34:1 55:1 112:3 253:0
0 1:1 3:2 4:3 5:1 7:4 8:2 9:2 10:1 15:1 20:2 25:2 27:1 29:1 36:1 37:1 66:2 74:1 76:1 97:1 115:1 116:1 117:1 253:0
0 1:12 2:12 4:4 5:2 6:4 9:2 10:1 14:4 15:4 16:2 20:2 30:4 31:2 39:2 40:2 72:2 253:0
0 1:6 2:6 4:13 5:9 6:2 9:6 10:9 11:3 15:3 16:1 20:3 22:2 23:3 24:3 28:1 88:1 114:4 253:0
0 1:4 2:4 3:4 4:6 5:4 7:6 8:3 9:4 10:5 11:3 29:1 36:1 37:2 58:1 59:1 60:1 61:2 62:1 63:2 64:2 65:1 107:1 253:0
0 1:14 2:15 3:3 4:8 5:5 6:6 7:2 8:1 9:7 10:5 11:6 15:2 16:1 20:4 23:1 24:1 26:2 27:1 28:1 66:2 253:0
0 1:11 2:9 3:3 4:5 6:5 7:4 8:2 14:4 15:5 16:2 20:3 22:1 23:1 24:1 25:4 42:1 43:1 44:2 45:1 102:1 253:0
0 1:6 2:6 4:5 5:4 9:2 10:4 11:1 14:2 15:3 16:1 20:3 26:4 27:2 253:0
0 1:6 2:6 4:14 5:8 6:4 9:5 10:11 11:4 15:1 20:1 22:1 23:4 24:4 28:2 62:2 93:1 107:3 109:1 253:0
0 1:13 2:14 3:3 4:8 5:3 6:6 7:4 8:2 9:4 10:5 11:1 12:2 13:1 15:2 20:2 22:2 23:3 24:3 28:1 29:1 36:3 37:1 253:0
0 1:12 2:12 4:7 6:6 10:4 12:7 13:2 15:1 20:1 22:1 23:1 24:1 33:2 34:1 62:2 63:2 64:4 65:1 92:2 93:1 253:0
0 1:9 2:8 4:5 6:4 7:4 8:1 10:2 12:2 13:1 15:1 17:2 18:1 19:2 20:1 21:2 23:1 24:2 25:2 33:2 34:1 37:2 54:1 94:2 95:1 253:0
0 1:5 2:2 3:10 4:7 5:3 6:1 7:9 8:6 9:5 10:7 11:4 23:1 25:1 28:2 34:3 35:1 37:2 112:3 113:3 253:0
0 1:6 2:6 4:7 5:4 9:3 10:4 11:1 14:2 15:3 16:1 20:2 23:1 24:1 28:1 58:2 59:1 60:1 61:2 62:3 63:2 64:2 65:1 74:1 92:2 93:1 97:1 107:4 118:2 119:1 253:0
0 4:8 5:4 9:4 10:7 11:2 15:1 20:1 22:1 23:1 24:1 35:1 39:2 40:1 62:2 93:1 107:3 253:0
0 1:9 2:8 4:5 5:5 6:1 9:8 10:1 11:7 15:4 16:2 20:4 22:1 23:3 24:2 26:1 27:1 28:3 29:4 32:1 42:2 43:1 44:2 102:1 183:1 253:0
0 1:9 2:8 4:4 5:3 6:5 9:3 10:1 11:3 26:2 27:1 42:2 43:1 44:2 102:1 253:0
0 1:8 2:5 3:7 4:7 5:5 6:2 7:7 8:3 9:9 10:4 11:6 12:3 13:2 15:2 16:1 20:2 23:2 24:2 28:2 29:3 36:3 37:1 41:2 94:3 95:1 253:0
0 1:12 2:12 4:3 5:1 6:6 7:4 9:2 11:1 23:1 24:1 25:4 28:1 29:2 37:2 94:4 95:6 144:4 253:0
0 1:8 2:7 3:2 4:5 5:3 6:4 7:7 8:3 9:4 10:2 11:2 14:2 15:2 16:1 20:1 26:1 27:1 29:1 33:4 34:5 36:1 37:4 94:3 95:1 112:3 113:3 132:1 253:0
0 1:6 2:6 4:6 5:1 6:4 9:3 10:3 11:3 14:4 15:4 16:2 20:2 22:1 23:1 24:1 253:0
0 1:1 3:2 4:1 5:1 6:1 7:4 8:2 9:6 11:4 23:2 24:1 25:1 28:3 29:1 35:1 36:1 37:1 66:2 253:0
0 1:6 2:6 4:13 5:8 6:2 9:7 10:11 11:5 12:2 13:1 15:3 20:4 22:2 23:4 24:4 28:2 29:2 41:1 62:2 93:1 106:1 107:3 253:0
0 4:22 10:33 12:5 13:2 15:3 20:6 23:2 24:4 34:1 112:2 253:0
0 1:6 2:6 4:10 5:13 6:2 9:8 10:7 11:7 15:1 20:1 22:1 23:3 24:3 28:2 35:1 62:2 93:1 100:1 107:4 253:0
0 4:1 5:1 9:1 12:1 13:1 38:1 40:1 98:1 163:1 253:0
0 1:13 2:14 3:3 4:5 5:5 6:5 7:2 9:5 11:4 12:2 13:1 23:1 24:1 25:1 28:1 94:2 95:1 253:0
0 1:15 2:15 3:5 4:3 6:5 7:6 8:3 10:1 14:6 15:6 16:3 23:1 24:2 25:3 37:1 253:0
0 1:15 2:16 3:3 4:6 6:3 7:2 8:1 10:5 14:6 15:4 16:1 20:2 25:1 253:0
0 4:4 5:3 9:3 10:1 11:1 15:2 20:2 27:2 32:1 50:1 51:1 52:1 76:2 77:3 78:2 79:1 80:2 81:2 82:1 226:1 227:1 253:0
0 1:10 2:9 3:6 4:4 6:3 7:6 8:3 10:1 14:2 15:4 16:2 20:2 25:1 37:1 62:2 63:1 64:2 93:1 107:1 110:2 253:0
0 4:1 5:1 7:2 9:2 11:1 23:1 24:1 28:1 36:1 43:1 44:2 45:2 59:1 60:1 61:2 62:1 63:2 64:2 65:1 94:2 95:1 110:1 121:1 142:1 253:0
0 4:4 5:4 9:10 11:7 35:3 38:2 39:6 40:3 88:1 89:1 253:0
0 1:6 2:6 4:2 5:1 9:3 10:1 11:1 14:4 15:4 16:2 20:3 35:1 39:2 40:1 253:0
0 1:6 2:6 4:7 5:4 6:2 9:5 10:2 11:3 12:5 13:2 14:2 15:2 16:1 20:1 23:2 24:2 26:2 27:1 28:2 34:6 38:1 39:1 40:2 41:1 54:1 72:2 88:1 89:1 90:1 91:1 112:6 113:6 114:1 253:0
0 4:1 62:2 63:2 64:2 65:1 84:1 85:1 86:2 107:2 253:0
0 1:9 2:8 4:6 5:3 6:3 9:4 10:4 11:6 15:3 16:1 20:5 42:2 43:1 44:2 102:1 253:0
0 1:12 2:12 4:2 6:4 12:2 13:1 14:10 15:9 16:4 50:1 51:3 52:3 53:3 82:1 253:0
0 4:25 10:40 15:1 20:3 23:1 24:2 253:0
0 1:12 2:12 4:8 5:6 6:2 9:9 10:4 11:9 23:1 24:2 29:4 62:2 92:4 93:1 253:0
0 4:4 5:2 9:4 10:2 11:2 12:2 13:1 23:1 24:1 28:1 35:1 41:1 98:1 99:2 253:0
0 4:5 10:1 15:6 16:3 20:7 22:3 23:3 24:3 253:0
0 1:4 2:3 3:2 4:4 5:3 6:2 7:2 8:1 9:3 10:3 11:3 23:1 24:1 28:1 253:0
0 1:1 3:2 4:7 5:6 7:2 9:5 10:4 11:4 14:1 15:5 16:2 20:5 29:1 36:1 103:1 174:2 176:2 189:1 253:0
0 4:3 5:2 9:1 10:2 15:2 20:2 22:2 23:2 24:2 253:0
0 1:6 2:6 4:8 5:7 6:2 9:8 10:6 11:7 14:2 15:2 16:1 20:1 23:2 24:2 26:2 27:1 28:2 29:2 253:0
0 1:12 2:12 4:11 5:2 6:6 9:3 10:12 11:3 14:4 15:6 16:3 20:1 22:1 23:1 24:1 90:1 91:1 253:0
0 1:6 2:6 4:1 5:1 9:4 11:6 14:2 15:1 29:2 253:0
0 1:12 2:12 4:9 5:7 6:6 9:7 10:4 11:6 14:4 15:3 16:1 58:1 59:1 60:1 61:2 62:1 63:2 64:2 65:1 92:2 253:0
0 4:5 5:3 9:7 10:3 11:2 12:1 13:1 15:1 20:2 23:2 24:3 28:1 35:2 38:2 39:2 40:2 41:3 72:2 253:0
0 1:4 2:3 3:2 4:7 5:4 6:2 7:2 8:1 9:4 10:4 11:3 15:2 20:3 39:1 40:1 72:1 74:1 75:1 97:1 253:0
0 1:8 2:6 3:4 4:6 5:1 6:3 7:10 8:5 9:4 10:3 11:2 15:1 20:3 25:5 29:2 34:6 36:4 37:3 112:6 113:6 253:0
0 1:6 2:6 4:3 5:2 6:2 9:3 10:1 11:1 15:2 16:1 20:2 23:1 24:1 28:1 32:1 38:1 39:1 40:1 141:1 253:0
0 1:2 2:1 3:1 4:26 6:4 7:1 10:35 12:6 13:2 15:5 16:1 17:1 19:1 20:9 21:1 22:1 23:2 24:3 25:1 69:1 70:1 71:1 253:0
0 1:6 2:6 4:7 5:8 6:2 9:6 10:3 11:4 12:3 13:1 15:1 20:1 22:1 23:3 24:3 28:2 41:1 62:2 93:1 100:1 107:2 253:0
0 4:4 5:1 9:4 10:2 11:6 15:3 16:1 20:4 22:2 23:2 24:2 253:0
0 1:6 2:6 4:8 5:2 6:2 9:3 10:5 11:1 12:6 13:2 15:4 16:2 20:3 22:2 23:2 24:2 29:2 41:2 74:1 97:1 115:1 116:1 117:1 253:0
0 1:6 2:6 4:3 5:2 6:2 9:2 10:1 11:1 23:1 24:1 27:1 28:1 76:1 253:0
0 1:6 2:4 3:5 4:7 5:2 6:6 7:9 8:4 9:2 10:2 11:1 14:1 15:2 16:1 25:4 36:2 37:3 94:3 95:1 103:1 253:0
0 1:12 2:12 4:10 5:11 6:4 9:10 10:5 11:8 23:1 24:1 28:1 29:2 33:2 34:1 253:0
0 1:10 2:9 3:2 4:8 5:1 6:5 7:2 8:1 9:3 10:7 11:3 12:4 13:1 25:1 253:0
0 1:12 2:12 4:11 6:6 10:8 14:2 15:10 16:3 20:15 26:2 27:1 253:0
0 1:9 2:11 3:2 4:5 5:1 6:1 7:2 8:1 9:3 10:3 11:3 14:1 15:2 16:1 20:1 25:1 103:1 253:0
0 1:16 2:13 3:5 4:4 6:8 7:5 8:2 9:1 10:1 14:1 15:2 16:1 17:1 19:1 20:1 21:1 25:1 29:1 36:1 69:1 70:1 71:1 103:1 253:0
0 1:6 2:6 4:8 5:3 6:6 9:2 10:2 11:1 14:4 15:5 16:2 20:4 22:1 23:1 24:1 253:0
0 1:12 2:9 3:7 4:7 5:2 6:4 7:7 8:2 9:5 10:5 11:2 14:3 15:2 16:1 23:2 24:2 25:2 28:2 29:3 36:1 37:1 66:1 94:5 95:2 96:1 103:1 253:0
0 1:12 2:12 4:8 6:4 10:3 12:4 13:2 14:8 15:11 16:4 20:8 22:2 23:4 24:6 54:2 253:0
0 1:12 2:12 4:4 5:1 6:6 9:2 10:2 23:2 24:3 28:1 29:2 253:0
0 1:6 2:6 4:4 9:6 10:2 11:4 12:4 13:2 29:4 38:3 40:2 62:2 72:4 92:2 93:1 106:1 107:1 253:0
0 1:13 2:10 3:5 4:6 5:1 6:9 7:11 8:5 9:2 11:1 17:1 18:1 19:2 21:2 23:1 24:1 25:5 28:1 29:2 33:2 34:1 37:4 94:3 95:1 136:1 253:0
0 1:10 2:9 3:2 4:4 5:1 6:3 7:2 8:1 9:3 10:4 11:3 25:1 30:2 31:1 253:0
0 1:9 2:8 3:2 4:5 6:6 7:2 8:1 9:1 10:2 15:1 20:1 22:1 23:2 24:3 25:2 26:2 27:1 66:2 253:0
0 1:12 2:10 3:4 4:5 5:2 6:8 7:4 8:1 9:5 11:2 12:1 13:1 23:2 24:2 25:2 28:2 29:4 34:6 41:1 66:1 94:2 95:1 96:1 112:6 113:6 253:0
0 1:10 2:8 3:5 4:8 5:3 6:7 7:5 8:2 9:3 10:1 11:3 14:2 15:2 16:1 20:1 23:1 24:1 25:3 28:1 34:1 37:1 94:3 95:1 112:1 253:0
0 1:6 2:6 4:7 5:2 6:2 9:4 10:6 11:1 23:1 28:2 29:2 35:1 58:1 59:1 60:1 61:2 62:1 63:2 64:2 65:1 92:2 253:0
0 1:6 2:6 4:1 5:2 9:3 11:1 26:2 27:3 29:2 35:1 58:1 59:2 60:2 61:4 62:2 63:4 64:4 65:2 76:2 92:4 104:1 253:0
0 1:12 2:12 4:9 5:6 6:4 9:5 10:9 11:6 23:1 24:1 28:1 253:0
0 191:6 248:15 253:0
0 4:8 5:6 9:5 10:3 11:4 12:3 13:1 15:3 16:1 20:3 22:2 23:4 24:4 28:2 41:1 62:2 90:1 91:1 93:1 100:1 107:2 253:0
0 4:27 10:42 15:4 20:7 22:1 23:1 24:1 253:0
0 1:12 2:12 4:9 5:7 6:8 9:4 10:6 11:2 15:2 16:1 20:1 22:1 23:3 24:3 26:2 27:1 28:2 33:2 34:4 112:3 113:3 253:0
0 1:11 2:13 3:6 4:1 6:1 7:4 8:2 14:2 15:2 16:1 25:1 253:0
0 4:25 10:31 12:6 13:2 15:3 20:7 118:2 119:1 253:0
0 4:3 10:2 34:10 112:14 113:8 253:0
0 4:4 5:1 9:1 10:3 15:1 20:1 22:1 23:2 24:3 253:0
0 1:18 2:16 3:4 4:6 5:4 6:13 7:6 8:3 9:2 10:3 25:1 33:2 34:3 37:1 38:1 39:1 40:1 72:1 112:2 113:1 253:0
0 1:15 2:14 3:8 4:2 5:1 6:4 7:9 8:4 9:4 11:3 14:2 15:2 16:1 20:1 23:1 24:1 28:1 29:2 33:2 34:1 37:2 62:2 66:1 92:2 93:1 94:4 95:2 96:1 110:2 253:0
0 1:8 2:10 3:2 7:2 9:1 29:1 36:1 88:1 94:2 95:1 114:1 253:0
0 1:6 2:6 4:8 5:9 6:2 9:6 10:6 11:4 15:1 20:1 22:1 23:3 24:3 28:2 38:1 40:1 62:2 93:1 100:1 107:4 253:0
0 1:6 2:6 4:15 6:4 10:22 14:2 15:1 23:1 24:2 253:0
0 1:8 2:6 3:4 4:1 6:2 7:4 8:2 14:8 15:4 25:2 74:2 105:4 253:0
0 1:7 2:6 3:2 4:4 5:2 6:4 7:4 8:2 9:4 11:3 15:2 16:1 20:2 22:1 23:2 24:2 25:2 28:1 29:2 33:2 34:1 37:1 66:2 253:0
0 1:17 2:20 4:3 5:2 6:4 9:3 11:3 12:2 13:1 253:0
0 1:12 2:12 4:9 5:6 6:8 9:6 10:1 11:6 14:4 15:4 16:2 20:2 23:1 24:2 253:0
0 1:7 2:8 3:3 4:6 5:3 7:4 8:2 9:6 10:4 11:4 14:4 15:6 16:3 20:3 23:1 24:1 28:1 29:1 36:3 37:1 253:0
0 1:16 2:17 3:7 4:7 5:7 6:7 7:6 8:2 9:6 10:1 11:6 17:1 18:1 19:2 21:2 25:1 94:2 95:1 136:1 253:0
0 1:12 2:12 4:14 5:7 6:8 9:5 10:13 11:4 14:8 15:8 16:4 253:0
0 1:9 2:8 4:12 6:13 10:11 17:2 18:1 19:2 21:1 23:2 24:4 62:1 63:2 64:2 65:1 84:1 85:1 86:2 92:1 238:1 253:0
0 1:6 2:6 4:13 6:4 10:14 12:3 13:1 14:4 15:3 16:1 20:3 253:0
0 1:4 2:2 3:4 4:12 5:5 6:1 7:8 8:4 9:5 10:12 11:4 15:1 20:1 25:3 26:2 27:1 29:1 36:3 37:2 62:2 63:1 64:2 92:2 93:1 107:1 253:0
0 1:12 2:12 4:8 5:6 6:4 9:8 10:5 11:7 12:2 13:1 23:1 24:1 28:1 29:4 40:1 72:1 88:1 89:1 114:2 253:0
0 1:14 2:13 3:2 4:4 6:4 7:4 8:2 10:4 14:2 15:9 16:4 20:6 22:1 23:1 24:1 37:1 103:4 253:0
0 1:10 2:9 3:2 4:5 5:4 6:2 7:6 8:2 9:5 10:2 11:4 14:2 15:2 16:1 20:1 23:2 24:2 25:4 28:2 29:1 36:1 37:2 94:2 95:1 253:0
0 1:6 2:6 14:4 15:3 16:1 253:0
0 1:12 2:12 4:5 5:4 6:4 7:4 8:1 9:5 10:4 11:3 15:1 20:3 23:1 24:1 26:2 27:1 28:1 29:2 33:4 34:2 37:2 38:1 39:1 40:1 66:1 94:2 95:1 96:1 253:0
0 1:12 2:12 4:10 5:3 6:4 7:3 8:1 9:3 10:8 11:3 19:1 21:1 25:3 37:1 69:1 70:1 71:1 136:1 253:0
0 1:12 2:12 4:9 5:1 6:8 9:3 10:9 11:3 253:0
0 1:6 2:6 4:7 5:3 6:2 9:2 10:7 11:1 15:2 16:1 20:1 22:1 23:1 24:1 253:0
0 1:6 2:6 4:1 5:2 9:8 11:5 23:2 24:1 26:2 27:1 28:3 29:2 35:2 38:1 39:2 40:1 253:0
0 1:12 2:12 3:2 4:2 6:4 7:2 8:1 15:1 17:2 18:1 19:2 20:1 21:1 22:1 23:1 24:1 25:1 26:4 27:2 136:1 253:0
0 1:6 2:6 3:2 4:7 5:4 7:2 8:1 9:8 10:5 11:7 14:2 15:5 16:2 20:5 23:1 28:2 29:2 35:1 36:1 42:2 43:1 44:2 45:1 142:1 253:0
0 1:6 2:6 4:16 5:4 6:4 9:4 10:21 11:6 14:4 15:4 16:1 20:5 23:1 24:2 253:0
0 1:1 3:2 4:3 5:1 6:2 7:4 8:2 9:5 11:2 25:2 35:1 37:1 38:1 39:2 40:1 62:2 91:1 93:1 107:2 157:1 253:0
0 1:7 2:6 3:2 4:11 5:2 6:5 7:4 8:2 9:1 10:11 15:2 20:4 25:1 33:2 34:1 37:1 66:2 253:0
0 1:16 2:18 3:6 4:2 6:4 7:4 8:2 10:1 253:0
0 1:6 2:6 4:1 6:2 9:2 26:4 27:2 35:1 39:2 40:2 72:1 88:1 89:1 114:1 253:0
0 1:5 2:3 3:3 4:10 5:4 6:5 7:4 8:2 9:6 10:9 11:4 23:2 24:1 25:2 28:3 34:3 35:1 36:1 42:1 43:1 44:2 45:1 102:1 112:3 113:3 142:1 253:0
0 4:7 10:8 15:4 16:2 20:2 22:2 23:2 24:2 55:1 253:0
0 1:4 2:3 3:2 4:7 5:3 6:2 7:2 8:1 9:3 10:4 11:3 15:2 20:3 27:1 40:1 72:1 73:1 74:2 75:1 76:1 105:2 205:1 253:0
0 4:11 5:3 9:1 10:18 253:0
0 1:11 2:8 3:5 4:8 5:9 6:4 7:7 8:3 9:9 10:4 11:7 17:2 18:1 19:2 21:1 23:1 24:1 25:1 28:1 29:5 36:1 37:2 94:3 95:1 253:0
0 1:12 2:12 4:10 5:5 6:6 9:4 10:7 11:3 14:4 15:4 16:2 20:2 23:3 24:3 28:3 253:0
0 1:12 2:12 4:4 5:1 6:4 9:3 10:3 11:3 15:2 16:1 20:4 26:2 27:1 253:0
0 4:25 10:37 12:3 13:1 15:2 16:1 20:4 22:1 23:3 24:5 253:0
0 1:6 2:6 4:11 5:3 6:4 9:3 10:11 11:3 15:3 16:1 20:3 22:1 23:1 28:1 32:1 118:2 119:1 253:0
0 1:12 2:12 4:10 5:4 6:6 9:7 10:2 11:4 12:4 13:2 14:2 15:6 16:3 20:5 29:2 35:1 38:2 39:2 40:2 41:1 72:1 253:0
0 1:12 2:12 4:15 5:9 6:4 9:7 10:13 11:9 15:2 16:1 20:3 22:1 23:1 24:1 33:2 34:1 253:0
0 1:8 2:7 3:1 4:9 5:7 6:6 7:1 9:5 10:5 11:4 15:1 17:1 19:1 20:1 21:1 22:1 23:3 24:3 25:1 26:2 27:1 28:2 33:2 34:1 62:2 69:1 70:1 71:1 93:1 100:1 107:4 253:0
0 1:6 2:4 3:4 4:7 5:2 6:1 7:6 8:3 9:5 10:4 11:4 14:3 15:6 16:3 20:4 22:1 23:1 25:1 28:1 29:3 32:1 36:1 37:1 62:2 63:2 64:4 65:1 92:1 93:1 103:1 110:1 253:0
0 4:2 10:1 12:2 13:1 15:2 16:1 20:1 22:1 23:1 24:1 90:1 91:1 253:0
0 1:12 2:12 4:3 5:1 6:4 7:4 8:1 9:2 10:1 25:2 26:2 27:1 29:2 37:2 38:1 40:1 66:2 72:2 94:2 95:1 253:0
0 4:7 5:2 9:1 10:7 15:1 20:3 253:0
0 4:2 5:2 9:1 10:1 15:2 20:2 22:1 23:1 24:1 253:0
0 1:6 2:6 4:20 5:9 9:7 10:22 11:6 15:1 20:1 22:1 23:2 24:2 28:1 29:4 38:1 40:1 72:2 253:0
0 1:6 2:6 4:9 5:3 6:2 9:3 10:5 11:1 12:6 13:2 15:6 16:3 20:5 22:2 23:2 24:2 26:2 27:1 41:2 253:0
0 1:6 2:6 4:3 5:2 6:2 9:1 10:2 14:2 15:1 253:0
0 1:10 2:9 3:2 4:4 5:7 6:2 7:2 8:1 9:11 11:10 23:2 24:2 28:2 29:5 36:1 253:0
0 1:12 2:12 4:6 5:3 6:8 9:3 10:3 11:3 14:10 15:12 16:6 20:3 22:1 23:1 24:1 55:1 253:0
0 1:6 2:6 4:5 5:4 6:2 9:2 10:4 11:1 15:1 20:2 26:2 27:1 253:0
0 1:12 2:12 4:4 6:4 10:3 12:4 13:1 23:1 24:2 253:0
0 1:11 2:14 4:11 5:1 6:2 9:2 10:11 11:1 14:2 15:7 16:3 20:4 22:3 23:3 24:2 28:1 32:1 55:1 253:0
0 1:9 2:8 4:3 5:2 6:4 9:5 11:2 17:2 18:1 19:2 21:2 23:2 24:1 28:3 29:2 35:1 40:1 72:1 74:1 88:1 89:1 97:1 114:2 115:1 116:1 117:1 253:0
0 1:6 2:6 4:9 5:2 6:4 9:2 10:6 11:1 12:8 13:3 14:6 15:8 16:4 20:1 23:1 24:2 54:1 253:0
0 1:11 2:9 3:4 4:8 5:4 6:4 7:6 8:2 9:5 10:10 11:3 26:2 27:1 29:1 36:3 37:1 62:2 92:3 93:1 94:2 95:1 110:1 253:0
0 1:6 2:6 4:16 6:4 10:22 14:2 15:3 16:1 20:3 22:1 23:1 24:1 253:0
0 1:8 2:7 3:3 4:7 5:2 6:2 7:6 8:3 9:3 10:6 11:1 15:1 20:1 29:1 36:2 37:2 42:2 43:1 44:2 45:1 62:2 93:1 107:2 110:2 142:1 253:0
0 1:12 2:12 4:3 5:3 6:4 9:5 11:4 14:8 15:8 16:4 20:1 23:1 24:1 28:1 253:0
0 1:9 2:8 4:10 5:7 6:3 9:5 10:5 11:4 15:3 16:1 20:3 22:2 23:3 24:3 28:1 42:2 43:1 44:2 62:2 93:1 102:1 107:3 253:0
0 1:12 2:12 3:2 4:1 6:3 7:2 8:1 9:2 11:1 14:2 15:1 17:3 18:1 19:2 21:1 29:1 33:1 34:1 36:1 200:1 253:0
0 1:12 2:12 4:4 6:8 10:2 14:4 15:2 23:1 24:2 253:0
0 1:17 2:15 3:4 4:9 5:3 6:10 7:6 8:3 9:2 10:8 14:2 15:3 16:1 20:3 25:4 32:1 37:1 66:2 253:0
0 4:25 10:38 12:3 13:1 15:6 16:3 20:10 22:2 23:3 24:4 253:0
0 1:7 2:6 3:2 4:8 5:6 6:4 7:4 8:2 9:5 10:3 11:3 15:2 16:1 20:1 22:1 23:2 24:2 25:4 28:1 33:6 34:6 37:1 66:2 112:3 113:3 253:0
0 1:6 2:6 4:3 5:2 6:2 9:2 10:2 11:1 14:4 15:4 16:2 55:1 253:0
0 4:5 10:4 15:4 20:8 31:2 124:2 253:0
0 1:13 2:14 3:3 4:2 5:1 6:3 7:2 9:1 15:1 20:1 22:1 23:1 24:1 25:1 26:4 27:2 66:1 94:2 95:1 96:1 253:0
0 4:5 5:2 9:5 10:3 11:4 12:1 13:1 15:4 16:1 20:6 23:2 24:1 28:3 32:1 34:1 35:1 41:1 112:1 179:1 253:0
0 1:12 2:12 4:3 6:6 14:4 15:4 16:1 20:2 22:1 23:2 24:2 253:0
0 1:6 2:6 4:9 6:4 10:11 14:2 15:1 253:0
0 1:6 2:6 4:5 10:4 14:4 15:9 16:2 20:11 55:1 253:0
0 1:2 2:1 3:5 4:10 5:5 7:8 8:4 9:5 10:8 11:2 15:4 16:1 20:7 23:1 24:1 28:1 29:1 32:1 36:1 37:3 66:2 253:0
0 1:12 2:12 4:5 5:2 6:6 9:4 10:2 11:3 23:1 28:2 29:2 35:1 38:1 40:1 72:2 253:0
0 1:11 2:9 3:4 4:4 5:1 6:3 7:6 8:3 9:2 10:2 14:2 15:4 16:2 20:3 25:1 29:1 33:2 34:1 36:1 37:1 66:2 74:1 97:1 103:2 115:1 116:1 117:1 253:0
0 1:6 2:6 4:10 5:2 6:2 9:2 10:7 11:1 12:6 13:2 15:6 16:3 20:3 22:3 23:3 24:3 26:4 27:2 41:2 55:1 253:0
0 1:6 2:6 4:11 5:7 6:2 9:8 10:6 11:7 14:2 15:7 16:3 20:10 22:1 23:1 28:1 32:1 90:1 91:1 253:0
0 1:12 2:12 4:8 5:4 6:4 9:4 10:5 11:6 15:3 16:1 20:6 22:1 23:1 24:1 253:0
0 1:12 2:12 4:13 5:6 6:8 7:2 9:4 10:10 11:3 23:1 24:1 25:2 28:1 37:1 38:1 39:1 40:1 72:1 94:2 95:3 144:2 253:0
0 4:18 10:22 15:9 16:3 20:13 22:2 23:2 24:2 55:3 226:2 227:1 253:0
0 4:5 5:2 9:5 10:3 11:3 12:1 13:1 15:4 16:1 20:6 23:1 28:2 32:1 35:1 38:1 39:1 40:1 41:1 68:1 72:1 167:1 184:1 253:0
0 4:1 5:1 9:1 38:1 40:1 98:1 163:1 253:0
0 1:13 2:14 3:3 4:2 5:1 6:2 7:2 9:1 14:1 15:3 16:1 20:2 22:1 23:1 24:1 66:1 94:2 95:1 96:1 103:1 253:0
0 253:0
0 1:12 2:12 4:4 5:4 6:4 9:3 10:1 11:1 14:2 15:2 16:1 20:1 23:1 24:1 28:1 33:2 34:1 253:0
0 4:11 5:8 9:6 10:10 11:4 12:6 13:2 15:6 16:3 20:4 22:1 23:3 24:4 28:1 32:2 41:1 54:1 253:0
0 1:12 2:10 3:4 4:11 5:5 6:6 7:6 8:3 9:3 10:9 11:3 14:1 15:2 16:1 20:1 23:1 24:1 25:2 28:1 33:2 34:1 37:1 103:1 253:0
0 1:12 2:12 4:6 5:3 6:6 7:4 8:1 9:4 10:5 11:1 23:1 24:1 25:2 28:1 29:2 33:4 34:2 37:2 40:1 66:1 72:2 88:1 89:1 94:2 95:1 96:1 114:1 253:0
0 4:5 5:2 9:5 10:3 11:4 12:1 13:1 15:5 16:1 20:8 23:2 24:1 28:3 32:1 34:1 35:1 41:1 112:1 179:1 253:0
0 4:28 5:2 9:2 10:42 11:1 15:1 20:2 23:1 24:1 28:1 62:1 63:2 64:2 65:1 84:1 85:1 86:2 107:1 253:0
0 1:6 2:6 4:2 10:1 14:4 15:5 16:2 20:3 22:1 23:1 24:1 253:0
0 1:6 2:6 4:2 5:1 6:2 9:2 10:1 11:1 14:4 15:3 20:2 253:0
0 1:6 2:6 4:3 5:3 6:2 9:4 10:1 11:2 23:1 24:1 26:2 27:1 28:1 29:2 35:1 59:1 60:1 61:2 62:1 63:2 64:2 65:1 92:2 253:0
0 1:12 2:12 4:7 6:10 10:2 14:4 15:5 16:2 20:3 22:3 23:5 24:7 253:0
0 1:12 2:12 4:6 6:4 10:3 12:4 13:2 14:8 15:6 16:2 23:2 24:4 253:0
0 1:14 2:13 3:2 4:4 6:8 7:4 8:2 9:4 11:2 29:5 36:3 37:1 90:1 91:1 253:0
0 1:8 2:7 3:6 4:8 5:3 6:3 7:8 8:4 9:3 10:6 11:3 15:2 16:1 20:2 25:3 29:1 36:1 37:2 62:2 63:1 64:2 93:1 107:3 210:2 211:1 212:1 253:0
0 1:18 2:18 4:5 5:2 6:6 9:3 10:2 11:3 14:4 15:4 16:2 20:1 26:2 27:1 62:2 63:2 64:4 65:1 92:4 93:1 253:0
0 62:2 63:1 64:2 93:1 253:0
0 4:7 5:2 9:2 10:8 11:1 15:3 20:4 23:1 24:1 28:1 253:0
0 1:12 2:12 4:3 5:3 6:2 9:9 10:1 11:5 23:1 24:1 26:4 27:2 28:1 29:8 33:2 34:2 38:1 39:1 40:1 58:3 59:2 61:4 63:2 65:1 112:2 171:1 253:0
0 4:6 5:2 9:2 10:4 11:1 12:3 13:1 253:0
0 1:12 2:12 4:3 6:4 10:2 12:2 13:1 14:8 15:5 16:1 23:1 24:2 54:1 253:0
0 1:9 2:8 3:2 4:4 5:4 6:5 7:2 8:1 9:6 10:1 11:4 23:1 24:1 25:1 26:2 27:1 28:1 29:2 35:1 98:1 99:2 253:0
0 1:6 2:6 4:13 5:4 6:2 9:4 10:12 11:6 15:1 20:3 253:0
0 4:23 10:35 12:3 13:1 15:2 20:4 23:3 24:6 253:0
0 1:9 2:8 3:2 7:2 9:2 14:1 15:2 16:1 29:3 36:1 58:1 59:1 60:1 61:2 62:1 63:2 64:2 65:1 92:2 94:2 95:1 103:1 253:0
0 1:19 2:22 3:4 4:3 5:2 7:2 8:1 9:2 10:1 11:1 14:6 15:7 16:3 20:4 253:0
0 4:25 10:38 12:5 13:2 15:2 16:1 20:4 22:1 23:3 24:5 27:1 76:1 133:1 253:0
0 4:23 10:35 12:3 13:1 15:2 20:3 23:2 24:4 253:0
0 1:7 2:6 3:2 4:10 5:7 6:4 7:4 8:2 9:7 10:2 11:4 14:2 15:2 16:1 20:1 23:1 24:1 25:4 28:1 37:1 38:1 39:1 40:1 58:2 59:1 60:1 61:2 62:1 63:2 64:2 65:1 72:1 87:2 88:1 92:2 114:1 253:0
0 1:12 2:12 4:8 5:4 6:2 9:3 10:6 11:3 15:1 20:1 22:1 23:3 24:3 28:1 62:4 92:2 93:2 107:4 109:1 253:0
0 1:16 2:15 3:2 4:4 5:3 6:6 7:2 8:1 9:2 10:2 11:1 23:1 24:1 28:1 253:0
0 1:6 2:6 4:9 6:2 10:7 12:2 13:1 14:2 15:4 16:2 20:2 22:1 23:1 24:1 253:0
0 1:11 2:14 4:5 6:6 10:3 253:0
0 1:7 2:6 3:2 4:3 5:1 6:4 7:4 8:2 9:1 12:2 13:1 15:1 20:1 22:1 23:1 24:1 37:1 66:2 253:0
0 1:12 2:12 4:10 5:2 6:4 9:2 10:8 11:1 14:4 15:6 16:2 20:8 33:4 34:2 253:0
0 1:10 2:9 3:2 4:3 5:2 6:5 7:2 8:1 9:2 11:1 14:2 15:2 20:1 22:1 23:2 24:2 25:1 26:2 27:1 28:1 253:0
0 4:3 5:3 9:1 10:3 15:3 20:3 253:0
0 1:12 2:11 3:8 4:6 5:2 6:5 7:9 8:1 9:2 10:4 25:3 33:2 34:3 37:2 66:2 94:9 95:4 96:2 112:4 113:1 253:0
0 1:7 2:6 3:1 4:17 5:2 6:5 7:2 8:1 9:2 10:16 11:1 15:3 16:1 17:1 18:1 19:2 20:5 21:1 22:1 23:2 24:2 25:2 28:1 136:1 253:0
0 1:12 2:12 4:11 5:3 6:8 9:2 10:8 11:1 15:1 20:1 22:1 23:1 24:1 253:0
0 4:8 10:8 12:5 13:2 15:1 20:1 253:0
0 4:7 10:7 15:2 20:3 253:0
0 4:24 10:37 12:3 13:1 15:1 20:3 23:2 24:4 34:3 112:3 113:3 253:0
0 1:20 2:26 3:8 4:7 5:5 6:4 7:4 8:2 9:4 10:5 11:1 15:4 16:1 20:7 23:1 24:1 28:1 32:2 66:4 253:0
0 4:2 5:2 9:2 27:2 50:1 51:1 52:1 76:2 77:2 78:2 79:1 80:2 81:2 253:0
0 4:7 5:2 9:1 10:7 15:2 20:2 22:2 23:2 24:2 34:1 112:1 253:0
0 1:12 2:12 4:11 5:3 6:8 9:3 10:11 11:3 15:1 20:3 253:0
0 1:6 2:6 4:16 6:4 10:24 14:2 15:2 20:3 118:1 119:1 253:0
0 1:18 2:18 4:4 5:1 6:6 9:1 10:6 23:1 24:1 28:1 33:4 34:2 253:0
0 1:6 2:6 4:4 5:4 6:2 9:4 10:4 11:2 14:2 15:2 16:1 20:1 23:2 24:1 28:3 33:2 34:1 35:1 253:0
0 4:8 5:4 9:5 10:5 11:4 12:2 13:1 15:2 16:1 20:2 22:1 23:2 24:2 28:1 38:2 39:1 40:1 41:1 72:1 253:0
0 1:12 2:12 4:4 5:4 6:2 9:9 10:1 11:7 12:5 13:2 23:2 24:2 26:2 27:1 28:2 29:4 41:2 88:1 114:3 253:0
0 1:6 2:6 4:3 5:1 9:3 10:1 11:3 12:4 13:2 14:2 15:1 23:1 24:1 28:1 29:2 41:1 253:0
0 4:11 5:8 9:8 10:6 11:4 253:0
0 1:15 2:13 3:8 4:4 5:4 6:3 7:6 8:2 9:6 10:1 11:4 14:4 15:4 16:2 25:1 29:4 66:1 94:2 95:1 96:1 253:0
0 1:6 2:6 4:22 5:3 6:2 9:3 10:26 11:3 14:2 15:8 16:3 20:11 55:2 226:2 227:1 253:0
0 1:16 2:15 3:2 4:6 5:1 6:8 7:2 8:1 9:2 10:4 11:1 23:2 24:3 28:1 29:1 36:1 253:0
0 4:27 10:42 15:3 20:5 22:1 23:1 24:1 253:0
0 1:6 2:6 9:7 11:9 14:2 15:2 16:1 22:1 23:1 28:1 29:2 32:1 253:0
0 1:6 2:3 3:6 4:10 5:4 6:2 7:6 8:3 9:5 10:10 11:3 15:3 16:1 20:4 25:2 26:2 27:1 29:2 36:2 62:2 92:3 93:1 110:1 253:0
0 1:10 2:8 3:5 4:8 5:2 6:8 7:8 8:3 9:2 10:2 11:1 14:2 15:2 16:1 19:1 21:1 25:5 29:1 36:1 37:2 69:1 70:1 71:1 94:3 95:1 136:1 253:0
0 1:6 2:6 4:3 5:2 6:2 9:1 10:2 14:4 15:5 16:2 20:2 253:0
0 1:6 2:6 4:2 5:2 6:4 9:2 39:2 40:2 72:2 88:3 89:2 114:2 253:0
0 1:12 2:12 4:3 5:1 6:4 9:3 11:3 12:2 13:1 15:2 16:1 20:2 26:2 27:1 54:1 62:2 92:4 93:1 253:0
0 4:10 10:13 15:1 20:2 253:0
0 1:12 2:12 3:4 4:5 5:4 6:2 7:4 8:2 9:4 10:2 11:3 25:2 26:2 27:1 37:1 66:2 253:0
0 1:6 2:6 4:6 5:3 6:2 9:5 10:3 11:4 14:2 15:2 16:1 20:1 23:1 24:1 28:1 253:0
0 1:7 2:8 3:3 4:9 5:7 6:1 7:2 9:6 10:8 11:4 23:1 24:1 25:1 28:1 66:1 94:2 95:1 96:1 253:0
0 1:6 2:4 3:5 4:5 5:2 6:2 7:9 8:4 9:8 10:3 11:7 15:2 16:1 20:2 23:1 28:2 29:5 35:1 36:3 37:3 94:3 95:1 253:0
0 1:15 2:16 3:3 4:8 6:9 7:2 8:1 10:5 14:2 15:2 20:1 22:1 23:1 24:1 25:1 26:2 27:1 253:0
0 227:1 240:1 249:1 253:0
0 1:12 2:12 4:7 5:5 6:6 9:6 10:3 11:4 12:2 13:1 23:2 24:1 28:2 29:2 62:2 93:1 100:1 106:1 107:1 109:1 253:0
0 1:6 2:6 4:9 5:2 6:4 9:3 10:10 11:3 12:2 13:1 14:4 15:5 16:2 20:4 253:0
0 1:6 2:6 4:13 5:3 6:4 9:1 10:12 15:2 20:2 253:0
0 1:6 2:6 4:7 5:2 6:2 9:3 10:8 11:3 15:2 16:1 20:2 22:1 23:1 24:1 253:0
0 1:6 2:3 3:5 4:10 5:5 6:3 7:7 8:2 9:10 10:8 11:8 17:1 19:1 21:1 25:2 29:3 36:5 37:1 69:1 70:1 71:1 94:2 95:1 253:0
0 4:22 10:32 12:5 13:2 15:1 20:3 118:1 119:1 253:0
0 4:8 5:3 9:3 10:8 11:3 15:2 16:1 20:4 62:2 93:1 107:2 108:1 253:0
0 4:23 10:34 12:5 13:2 15:2 20:4 22:1 23:2 24:3 253:0
0 1:12 2:12 4:9 5:4 6:4 9:5 10:10 11:6 23:1 24:1 28:1 253:0
0 1:11 2:14 4:9 5:4 9:6 10:6 11:4 12:3 13:1 14:2 15:2 16:1 20:1 23:2 24:2 28:2 74:1 97:1 253:0
0 1:10 2:9 3:2 4:3 5:2 6:3 7:2 8:1 9:3 10:1 11:1 23:1 24:1 25:1 28:1 29:2 30:2 31:1 38:1 40:1 72:2 253:0
0 1:16 2:21 3:6 4:3 5:2 6:2 7:4 8:2 9:5 10:1 11:4 14:2 15:1 29:1 36:1 253:0
0 1:12 2:12 4:8 5:4 6:4 9:5 10:6 11:4 14:2 15:2 16:1 23:1 24:1 28:1 29:2 253:0
0 4:6 5:2 9:5 10:5 11:3 12:1 13:1 15:5 16:1 20:9 23:1 28:2 32:1 35:1 38:1 39:1 40:1 41:1 72:1 118:1 119:1 253:0
0 1:4 2:3 3:2 4:1 6:2 7:2 8:1 15:1 20:1 22:1 23:1 24:1 33:2 34:1 253:0
0 1:13 2:12 3:2 4:4 5:1 6:5 7:4 8:2 9:2 10:1 25:3 26:2 27:1 29:2 33:2 34:1 37:1 38:1 40:1 66:2 72:2 253:0
0 1:6 2:4 3:4 4:13 5:5 6:4 7:4 8:1 9:8 10:13 11:5 12:2 13:1 14:2 15:1 23:3 24:5 25:2 28:1 29:2 41:2 66:1 94:2 95:1 96:1 253:0
0 1:12 2:12 4:6 5:8 6:4 7:6 8:3 9:10 10:1 11:8 12:2 13:2 33:4 34:2 36:6 37:3 253:0
0 9:2 23:1 28:2 35:1 74:1 97:1 253:0
0 1:6 2:6 4:15 5:4 6:6 9:6 10:16 11:4 12:6 13:2 14:2 15:5 20:5 23:3 24:5 28:1 54:2 74:1 75:1 97:2 253:0
0 1:12 2:12 4:3 5:1 6:4 9:3 10:1 11:3 15:1 20:1 22:1 23:2 24:3 29:4 253:0
0 1:12 2:12 4:4 5:2 6:4 9:4 10:2 11:2 12:2 13:1 23:2 24:4 29:4 41:2 253:0
0 1:14 2:13 3:6 4:2 6:2 7:8 8:4 9:4 11:1 25:2 29:4 33:4 34:5 36:4 37:2 66:2 112:3 113:3 253:0
0 1:4 2:3 3:2 4:10 6:2 7:2 8:1 10:13 15:2 16:1 20:3 22:1 23:1 24:1 253:0
0 1:6 2:6 4:2 5:1 6:2 9:5 10:1 11:3 23:1 24:1 28:1 29:2 35:1 40:1 72:2 88:1 89:1 98:1 99:2 114:1 253:0
0 4:6 5:2 9:5 10:4 11:4 12:2 13:1 15:3 16:1 20:4 23:2 24:1 28:3 32:1 34:1 35:1 41:1 112:2 253:0
0 1:4 2:3 3:2 4:19 5:11 6:2 7:2 8:1 9:9 10:24 11:7 23:2 24:2 28:2 29:1 34:3 36:1 112:3 113:3 253:0
0 1:14 2:13 3:2 4:7 5:8 6:7 7:2 9:11 10:1 11:10 15:2 16:1 20:2 23:2 24:2 25:1 28:2 29:3 36:1 94:2 95:1 253:0
0 1:6 2:6 4:4 5:4 6:2 9:4 10:2 11:1 15:2 20:3 23:1 24:1 28:1 29:2 74:1 97:1 115:1 116:1 117:1 127:1 128:2 216:1 253:0
0 1:12 2:12 4:4 5:2 6:2 9:3 10:2 11:3 14:4 15:3 16:1 20:1 22:1 23:1 24:1 29:2 59:1 60:1 61:2 62:1 63:2 64:2 65:1 92:2 253:0
0 4:3 5:2 9:2 10:2 253:0
0 1:12 2:12 4:4 5:2 6:4 9:2 10:1 14:4 15:4 16:2 20:2 39:2 40:2 72:2 253:0
0 1:1 3:2 4:25 5:1 7:4 8:2 9:1 10:40 15:3 16:1 20:4 23:1 24:2 37:1 66:2 253:0
0 1:6 2:6 4:8 5:2 6:2 9:3 10:9 11:3 12:2 13:1 15:2 16:1 20:2 22:1 23:1 24:1 253:0
0 1:6 2:6 4:1 5:1 6:2 9:3 11:1 33:2 34:1 35:1 39:2 40:1 253:0
0 1:14 2:13 3:2 4:4 5:1 6:8 7:2 9:1 10:3 15:1 20:3 26:2 27:1 94:2 95:1 253:0
0 1:6 2:6 4:4 5:2 9:2 10:1 11:1 14:4 15:6 16:3 20:5 253:0
0 1:17 2:16 3:7 4:4 5:1 6:8 7:9 8:4 9:2 10:1 11:1 23:1 24:1 25:2 28:1 33:2 34:1 37:3 94:3 95:1 253:0
0 1:10 2:9 3:2 4:3 5:1 6:4 7:2 8:1 9:3 10:1 11:3 12:3 13:1 30:2 31:1 253:0
0 1:7 2:6 3:2 4:5 5:6 6:3 7:4 8:2 9:9 11:5 15:2 16:1 20:2 23:1 24:1 25:1 26:4 27:2 28:1 29:1 35:1 36:1 37:1 38:1 39:2 40:1 66:2 253:0
0 1:14 2:12 3:9 4:5 5:5 6:3 7:11 8:6 9:9 11:7 25:5 29:3 36:1 37:3 66:2 94:2 95:1 253:0
0 1:12 2:12 4:9 5:7 6:2 9:7 10:6 11:5 14:4 15:4 16:1 20:4 23:1 24:1 26:2 27:1 28:1 29:2 253:0
0 1:1 3:2 4:1 5:1 6:1 7:4 8:2 9:4 11:1 23:1 24:1 25:1 28:1 29:1 36:1 37:1 88:1 114:2 127:1 128:1 154:1 253:0
0 1:3 2:2 3:2 4:11 5:3 6:6 7:2 8:1 9:3 10:7 11:3 15:2 16:1 20:2 23:1 24:2 25:2 253:0
0 1:13 2:13 3:5 4:4 6:5 7:4 8:2 10:1 12:2 13:1 23:1 24:2 25:1 34:3 112:3 113:3 253:0
0 1:12 2:12 4:2 6:4 15:2 20:2 22:2 23:2 24:2 226:2 227:1 253:0
0 4:18 10:18 12:4 13:2 15:3 20:5 22:1 23:2 24:3 253:0
0 1:12 2:12 9:4 11:2 29:4 62:4 63:4 64:6 65:1 84:2 85:2 86:2 92:4 93:1 100:2 253:0
0 1:12 2:12 4:4 5:6 6:4 9:6 10:1 11:6 26:2 27:1 253:0
0 4:21 10:32 12:3 13:1 15:1 20:2 23:1 24:2 253:0
0 4:9 5:6 9:7 10:5 11:6 12:6 13:2 15:4 16:2 20:3 22:1 23:3 24:4 28:1 32:1 41:2 253:0
0 1:8 2:7 3:2 4:10 5:3 6:3 7:4 8:2 9:3 10:6 11:3 14:1 15:2 16:1 20:1 25:3 33:2 34:1 37:1 103:1 253:0
0 1:10 2:9 3:2 4:3 5:2 6:2 7:2 8:1 9:4 10:1 11:2 15:2 20:3 23:1 24:1 28:1 29:4 33:2 34:1 67:2 68:1 253:0
0 1:12 2:12 4:6 5:1 6:4 9:3 10:7 11:3 15:2 16:1 20:4 253:0
0 1:12 2:12 4:7 5:7 6:4 9:6 10:6 11:4 15:1 20:1 22:1 23:3 24:2 28:3 35:1 253:0
0 1:6 2:6 4:2 5:1 6:2 9:2 10:1 11:1 14:2 15:2 20:2 253:0
0 4:4 10:2 15:2 20:4 50:1 51:2 52:2 53:1 82:2 250:2 251:1 252:1 253:0
0 1:11 2:9 3:5 4:11 5:3 6:10 7:5 8:4 9:4 10:3 11:2 15:3 16:1 20:3 22:2 23:3 24:3 25:2 28:1 29:2 37:1 253:0
0 1:19 2:18 3:2 4:7 5:1 6:11 7:4 8:2 9:4 10:4 11:3 12:3 13:1 15:1 20:3 23:1 24:1 25:1 26:2 27:1 28:1 29:2 37:1 66:2 118:1 119:1 253:0
0 1:12 2:12 4:6 6:4 10:5 12:3 13:1 14:2 15:3 16:1 20:2 22:1 23:1 24:1 54:1 253:0
0 1:12 2:12 4:9 5:8 6:6 9:6 10:8 11:6 26:2 27:1 253:0
0 1:9 2:10 3:3 4:10 5:3 6:3 7:2 8:1 9:3 10:7 11:3 12:6 13:2 15:3 16:1 20:5 22:1 23:2 24:2 25:1 28:1 33:4 34:2 41:1 253:0
0 1:12 2:12 4:3 5:1 6:4 9:2 11:1 12:2 13:1 14:4 15:5 16:2 20:1 22:1 23:2 24:2 28:1 29:2 253:0
0 1:6 2:6 4:5 5:2 6:2 9:4 10:7 11:2 23:2 24:2 28:2 35:1 253:0
0 1:6 2:6 4:2 6:4 15:4 16:2 20:2 22:2 23:2 24:2 253:0
0 1:14 2:15 3:3 4:7 5:4 6:4 7:2 8:1 9:2 10:5 11:1 14:2 15:3 16:1 20:3 90:1 91:1 253:0
0 1:14 2:13 3:2 4:5 6:8 7:4 8:2 9:4 11:2 12:2 13:1 29:5 36:3 37:1 90:2 91:2 253:0
0 4:16 5:12 9:12 10:17 11:9 23:5 24:4 28:6 35:1 62:1 107:2 253:0
0 1:12 2:12 4:4 6:4 10:3 14:10 15:7 16:1 20:4 253:0
0 4:3 5:2 9:5 11:3 12:1 13:1 15:3 16:1 20:3 23:1 28:2 32:1 34:1 35:1 38:1 39:1 40:1 41:1 62:2 72:1 93:1 107:2 108:1 112:1 179:1 253:0
0 4:6 5:3 9:5 10:4 11:3 12:4 13:2 15:3 20:5 23:1 28:2 34:1 35:1 38:1 39:1 40:1 41:1 72:1 112:1 179:1 253:0
0 1:16 2:15 3:2 4:8 5:4 6:10 7:2 8:1 9:3 10:5 11:1 15:2 16:1 20:1 22:1 23:2 24:2 28:1 39:1 40:1 72:1 74:1 105:2 253:0
0 1:8 2:9 3:3 4:14 5:8 6:1 7:2 8:1 9:6 10:14 11:3 23:3 24:3 25:1 26:2 27:1 28:3 90:1 91:1 253:0
0 1:16 2:14 3:2 4:6 5:5 6:7 7:4 8:2 9:5 10:2 11:4 25:1 29:2 37:1 42:2 43:1 44:2 58:2 59:1 60:1 61:2 62:1 63:2 64:2 65:1 90:1 91:1 92:1 121:1 253:0
0 1:2 3:6 4:5 5:2 6:1 7:8 8:4 9:1 10:3 15:1 25:1 37:3 66:2 103:2 118:1 119:1 253:0
0 1:10 2:9 3:2 4:4 5:4 6:3 7:2 8:1 9:6 10:3 11:2 23:1 24:1 25:1 28:1 29:2 33:4 34:2 35:1 38:1 39:2 40:1 58:2 59:1 60:1 61:2 62:1 63:2 64:2 65:1 107:1 253:0
0 1:6 2:6 4:1 6:2 9:2 26:4 27:2 35:1 39:2 40:2 72:1 74:1 88:1 89:1 97:1 114:1 253:0
0 4:4 5:3 9:4 10:3 11:1 15:1 20:1 22:1 23:1 24:1 35:1 39:2 40:1 74:1 88:1 114:1 116:1 117:1 188:1 221:1 253:0
0 1:16 2:14 3:5 4:5 5:4 6:5 7:5 8:2 9:3 10:2 11:1 14:2 15:2 16:1 20:1 25:1 29:1 33:2 34:1 36:1 37:1 94:3 95:1 253:0
0 4:24 10:34 12:6 13:2 15:2 16:1 20:4 22:1 23:3 24:5 253:0
0 1:6 2:6 4:6 5:5 6:2 9:8 10:2 11:7 12:2 13:1 15:1 20:1 22:1 23:2 24:3 29:4 33:2 34:1 41:1 253:0
0 1:15 2:17 3:2 4:3 5:2 6:2 7:2 8:1 9:2 11:1 14:6 15:4 16:1 20:1 22:1 23:2 24:2 25:2 28:1 253:0
0 1:6 2:6 4:6 5:2 6:4 9:5 10:4 11:2 29:2 35:1 38:1 39:2 40:1 253:0
0 4:5 5:2 9:2 10:5 11:1 15:3 20:5 253:0
0 1:9 2:8 4:5 6:4 10:4 15:1 20:1 22:1 23:2 24:3 42:2 43:1 44:2 102:2 253:0
0 4:1 5:1 9:1 62:1 107:1 253:0
0 4:4 10:3 15:6 16:1 20:9 55:1 253:0
0 1:6 2:6 4:8 5:9 6:2 7:2 9:8 10:3 11:5 12:2 13:1 15:1 18:1 19:2 20:1 21:2 23:3 24:3 25:2 28:3 33:2 34:1 38:1 39:1 40:1 41:1 54:1 72:1 94:2 95:1 136:2 253:0
0 1:13 2:14 3:3 4:6 5:3 6:4 7:2 9:4 10:5 11:1 23:1 24:1 28:1 29:2 66:1 94:2 95:1 96:1 253:0
0 1:12 2:12 4:7 5:3 6:4 9:2 10:7 11:1 15:1 20:3 253:0
0 1:6 2:6 4:2 5:1 6:2 9:3 10:1 11:1 23:1 24:1 26:4 27:2 28:1 35:1 39:2 40:1 253:0
0 1:18 2:18 4:7 5:3 6:4 9:3 10:7 11:3 14:2 15:2 20:2 23:1 24:1 28:1 29:2 33:4 34:2 253:0
0 1:6 2:6 4:7 5:6 6:2 9:5 10:3 11:4 14:2 15:2 16:1 23:1 24:1 28:1 62:2 63:2 64:4 65:1 92:2 93:1 107:1 253:0
0 4:5 5:6 9:5 10:3 11:4 23:2 24:2 28:2 253:0
0 1:6 2:6 4:10 5:5 6:2 9:6 10:7 11:6 12:3 13:2 23:1 24:1 27:1 28:1 41:2 76:1 133:1 253:0
0 1:9 2:8 3:2 4:3 5:2 6:3 7:2 8:1 9:4 10:1 11:1 25:1 26:2 27:1 29:2 38:2 39:1 40:2 72:3 253:0
0 1:10 2:9 3:2 4:2 5:2 7:2 8:1 9:6 10:1 11:6 29:3 36:1 62:2 92:4 93:1 253:0
0 1:8 2:6 3:7 4:3 6:5 7:8 8:4 14:3 15:4 16:2 25:1 37:2 62:2 63:1 64:2 93:1 103:1 107:1 110:2 253:0
0 1:10 2:8 3:5 4:8 5:8 6:4 7:5 8:2 9:8 10:3 11:7 12:2 13:1 23:1 24:1 28:1 29:1 33:4 34:2 36:1 37:1 94:3 95:1 253:0
0 1:13 2:14 3:3 4:5 5:4 7:4 8:2 9:7 10:1 11:5 12:1 13:1 14:2 15:4 16:2 20:3 23:1 24:1 26:2 27:1 28:1 29:5 33:2 34:1 36:1 37:1 253:0
0 1:12 2:12 4:6 5:1 6:4 9:3 10:6 11:3 15:3 16:1 20:7 22:1 23:1 24:1 253:0
0 1:14 2:15 3:3 4:3 6:6 7:2 8:1 9:1 29:2 58:1 59:1 60:1 61:2 62:1 63:2 64:2 65:1 90:2 91:2 92:2 253:0
0 1:12 2:12 4:8 5:8 9:10 10:3 11:9 15:2 16:1 20:2 22:1 23:1 24:1 26:2 27:1 29:4 62:2 92:4 93:1 253:0
0 1:6 2:6 4:4 5:5 6:2 9:6 11:4 14:2 15:2 16:1 23:1 24:1 26:2 27:1 28:1 29:2 253:0
0 1:11 2:6 3:11 4:5 5:6 6:2 7:11 8:7 9:9 10:1 11:7 15:2 16:1 20:2 25:2 29:6 36:2 37:1 253:0
0 1:9 2:8 4:6 5:1 6:5 7:4 8:1 9:2 10:2 25:4 26:2 27:1 29:1 37:2 38:1 40:1 42:2 43:1 44:2 66:2 72:2 94:2 95:1 102:1 142:1 253:0
0 1:12 2:12 4:15 5:9 6:6 9:7 10:16 11:5 14:4 15:2 23:1 24:1 28:1 253:0
0 1:10 2:9 3:2 4:5 5:3 6:4 7:2 8:1 9:5 11:4 15:4 16:2 20:4 22:1 23:1 24:1 29:3 34:3 36:1 112:3 113:3 253:0
0 4:23 10:37 15:2 20:5 118:1 119:1 253:0
0 1:10 2:9 3:2 4:8 5:7 6:4 7:2 8:1 9:8 10:4 11:7 23:1 24:1 28:1 29:1 36:1 253:0
0 1:1 3:2 4:3 5:2 6:1 7:4 8:2 9:4 15:1 20:1 25:1 31:2 36:2 37:1 50:1 51:1 52:1 66:2 74:1 77:2 78:2 79:1 80:2 81:2 82:1 97:1 115:1 116:1 117:1 124:2 253:0
0 1:10 2:9 3:2 4:7 5:1 6:5 7:2 8:1 9:2 10:4 11:1 14:2 15:2 16:1 20:1 23:2 24:1 25:1 28:2 62:2 93:1 100:1 107:2 109:1 253:0
0 1:6 2:6 4:4 5:3 6:4 9:3 10:1 11:1 23:1 24:1 28:1 29:2 253:0
0 1:9 2:8 4:9 5:7 6:1 9:6 10:7 11:6 15:2 16:1 20:1 23:1 24:1 28:1 29:2 42:2 43:1 44:2 102:1 253:0
0 4:5 5:6 9:4 10:3 11:2 15:1 20:1 22:1 23:3 24:3 28:2 253:0
0 1:12 2:12 4:12 5:4 6:4 9:4 10:16 11:6 90:1 91:1 253:0
0 4:21 10:32 12:3 13:1 15:1 20:2 23:1 24:2 253:0
0 1:14 2:9 3:10 4:6 5:1 6:11 7:10 8:5 9:2 10:1 11:1 23:1 24:1 25:3 28:1 29:1 36:1 253:0
0 4:5 5:2 9:5 10:3 11:3 12:1 13:1 15:5 16:1 20:8 23:1 28:2 32:1 35:1 38:1 39:1 40:1 41:1 50:1 51:3 52:3 53:3 72:1 82:1 253:0
0 1:1 3:1 4:3 5:2 6:1 7:2 8:1 9:8 11:5 13:1 25:2 35:1 41:3 42:1 43:1 44:2 45:1 62:2 74:1 93:1 97:1 102:1 107:2 115:1 116:1 117:1 253:0
0 1:6 2:6 4:2 5:3 9:7 11:5 12:2 13:1 23:1 24:1 28:1 29:2 41:2 88:1 114:4 253:0
0 1:11 2:14 4:11 5:3 6:2 9:3 10:8 11:3 15:4 16:2 20:5 22:1 23:1 24:1 253:0
0 1:6 2:6 4:9 5:5 6:2 9:5 10:9 11:4 23:2 24:2 28:2 253:0
0 1:12 2:12 4:2 6:2 9:2 10:1 11:1 15:1 20:1 22:1 23:1 24:1 26:4 27:2 29:4 253:0
0 1:6 2:6 4:9 5:6 6:2 9:7 10:5 11:5 14:2 15:3 16:1 20:3 23:2 24:2 28:2 29:2 35:1 253:0
0 1:12 2:12 4:7 5:7 6:2 9:9 10:2 11:9 15:1 20:1 23:1 24:2 29:4 62:2 92:4 93:1 253:0
0 1:19 2:20 3:3 4:2 6:6 7:2 9:5 11:2 23:1 28:2 29:5 33:2 34:1 35:1 36:1 94:2 95:1 253:0
0 1:13 2:11 3:8 4:2 6:3 7:8 8:4 9:1 14:2 15:2 16:1 25:1 29:2 37:1 62:2 63:1 64:2 66:2 93:1 107:1 110:2 253:0
0 1:6 2:6 4:3 5:1 6:2 9:1 10:3 14:2 15:1 23:1 24:1 28:1 34:3 58:1 59:1 60:1 61:2 62:2 63:4 64:4 65:2 83:1 84:1 85:1 86:2 113:3 180:3 253:0
0 1:3 2:2 3:2 4:6 5:4 6:3 7:2 8:1 9:6 10:4 11:4 15:2 20:3 23:1 24:1 25:1 28:1 29:2 38:1 39:1 40:1 253:0
0 1:12 2:12 4:6 5:6 6:4 9:6 10:3 11:4 14:2 15:2 16:1 23:1 24:1 26:2 27:1 28:1 29:2 253:0
0 4:22 10:34 12:3 13:1 15:4 16:1 20:8 54:1 90:1 91:1 253:0
0 4:5 5:2 9:5 10:3 11:3 12:1 13:1 15:5 16:1 20:8 23:1 28:2 32:1 35:1 38:1 39:1 40:1 41:1 72:1 253:0
0 1:8 2:9 3:3 4:8 5:4 6:2 7:2 8:1 9:3 10:7 11:3 15:2 16:1 20:3 22:1 23:1 24:1 253:0
0 4:3 10:2 15:2 20:2 22:1 23:1 24:1 253:0
0 1:6 2:6 4:2 5:1 9:2 10:1 11:1 14:4 15:6 16:3 20:3 22:1 23:1 28:1 32:1 253:0
0 1:12 2:12 4:9 5:3 6:6 9:2 10:5 11:1 14:2 15:5 16:2 20:5 22:1 23:1 24:1 26:2 27:1 253:0
0 1:12 2:12 3:4 4:5 5:5 6:2 7:4 8:2 9:4 10:1 11:1 14:4 15:2 16:1 23:1 24:1 25:2 28:1 37:1 66:2 253:0
0 1:6 2:6 4:1 6:2 14:2 15:2 20:1 22:1 23:1 24:1 253:0
0 1:12 2:12 4:3 6:2 10:3 14:4 15:3 16:1 20:1 22:1 23:1 24:1 253:0
0 1:12 2:10 3:4 4:9 5:1 6:4 7:4 8:1 9:3 10:10 11:1 15:2 16:1 20:4 22:1 23:2 24:2 28:1 29:3 33:2 34:1 36:1 66:1 94:2 95:1 96:1 253:0
0 1:12 2:12 4:6 5:6 9:8 10:2 11:7 14:4 15:4 16:2 20:2 23:1 24:1 26:4 27:2 28:1 29:4 253:0
0 4:1 5:1 9:1 15:1 20:1 22:1 23:1 24:1 253:0
0 1:12 2:12 4:7 5:1 6:6 9:2 10:4 11:1 14:2 15:3 16:1 20:4 22:1 23:2 24:2 28:1 29:2 253:0
0 1:12 2:12 4:6 5:7 6:2 9:7 10:3 11:6 23:1 24:1 26:2 27:1 28:1 29:2 33:4 34:2 58:1 59:1 60:1 61:2 62:1 63:2 64:2 65:1 92:2 253:0
0 1:4 2:3 3:2 4:5 5:7 6:2 7:2 8:1 9:11 11:6 12:1 13:1 23:2 24:2 28:2 29:2 35:1 38:1 39:1 40:2 41:2 62:2 72:1 88:1 89:1 93:1 100:1 107:1 114:2 149:2 253:0
0 4:9 5:2 9:4 10:12 11:2 23:2 24:2 28:2 35:1 98:1 99:2 253:0
0 1:4 2:3 3:2 4:6 5:4 6:4 7:8 8:4 9:7 11:6 15:4 16:2 20:4 25:2 29:1 34:3 36:5 37:3 112:3 113:3 253:0
0 1:8 2:7 3:5 4:6 5:5 6:2 7:8 8:4 9:5 10:3 11:2 15:1 20:1 29:1 36:3 37:3 66:2 253:0
0 4:4 5:3 9:5 10:3 11:2 15:1 20:1 22:1 23:1 24:1 35:1 39:2 40:1 253:0
0 1:6 2:6 4:3 6:2 10:1 12:1 13:1 14:2 15:3 16:1 20:2 22:1 23:1 24:1 26:2 27:1 253:0
0 1:8 2:7 3:1 4:9 5:4 6:4 7:1 9:6 10:5 11:2 17:1 19:1 21:1 23:2 24:1 25:1 28:3 35:1 58:1 59:1 60:1 61:2 62:1 63:2 64:2 65:1 69:1 70:1 71:1 88:1 92:2 114:3 253:0
0 1:10 2:9 3:2 4:3 5:1 6:3 7:2 8:1 9:3 10:1 11:3 15:2 16:1 20:3 25:1 26:2 27:1 253:0
0 1:4 2:3 3:2 4:3 5:1 6:3 7:2 8:1 9:1 10:1 25:1 98:1 99:1 152:1 253:0
0 1:4 2:2 3:4 4:5 5:3 6:3 7:6 8:2 9:5 10:3 11:2 25:1 29:3 34:3 36:3 37:1 66:1 90:1 91:1 94:2 95:1 96:1 112:3 113:3 253:0
0 1:6 2:6 4:4 5:2 6:4 9:2 10:2 11:1 23:1 24:2 253:0
0 1:12 2:12 4:9 5:2 6:6 9:1 10:8 15:1 20:3 26:2 27:1 58:1 59:1 60:1 61:2 62:1 63:2 64:2 65:1 90:1 91:1 92:2 253:0
0 1:6 2:6 4:12 5:4 6:2 9:7 10:10 11:5 15:4 16:1 20:6 23:3 24:2 26:2 27:1 28:4 29:2 35:1 40:1 72:1 88:1 89:1 114:2 253:0
0 1:8 2:9 4:2 6:2 12:2 13:1 14:4 15:4 16:2 17:3 18:1 19:2 20:1 22:1 23:1 24:1 253:0
0 1:12 2:12 4:2 5:3 9:8 10:1 11:7 29:4 58:2 59:1 60:1 61:2 62:3 63:2 64:2 65:1 92:6 93:1 253:0
0 1:6 2:6 4:9 5:6 6:2 9:5 10:5 11:4 15:2 16:1 20:2 22:1 23:1 24:1 253:0
0 1:12 2:12 4:8 6:6 10:5 14:2 15:7 16:2 20:10 26:2 27:1 62:2 93:1 107:1 108:1 253:0
0 1:14 2:11 3:7 4:12 5:4 6:8 7:7 8:3 9:4 10:11 11:2 14:3 15:3 16:1 20:3 23:1 24:1 28:1 29:1 36:1 37:1 94:3 95:1 103:1 253:0
0 1:2 3:2 4:17 5:2 6:4 7:4 8:2 9:2 10:12 15:2 20:2 25:2 42:2 43:2 44:4 45:2 66:4 102:2 253:0
0 1:7 2:6 3:6 4:6 5:2 6:4 7:4 8:2 9:2 10:7 11:1 253:0
0 1:6 2:6 4:11 5:6 9:6 10:10 11:3 14:2 15:3 16:1 20:3 23:1 28:2 29:2 35:1 253:0
0 4:2 5:1 9:4 10:1 11:3 15:1 20:1 22:1 23:1 24:1 88:1 114:4 253:0
0 1:6 2:6 4:5 5:2 6:2 9:3 10:3 11:3 12:2 13:1 15:1 20:1 22:1 23:1 24:1 26:2 27:1 29:2 253:0
0 1:12 2:10 3:6 4:4 5:2 6:4 7:8 8:4 9:5 11:4 14:4 15:2 16:1 17:3 18:1 19:2 21:1 23:2 24:2 25:3 28:2 29:1 36:1 37:1 253:0
0 1:14 2:15 3:3 4:4 5:2 6:5 7:2 9:3 10:1 11:1 14:2 15:2 16:1 23:1 24:1 25:1 28:1 29:2 33:2 34:1 94:2 95:1 253:0
0 1:9 2:10 3:3 4:10 5:4 6:5 7:2 8:1 9:6 10:6 11:6 12:6 13:2 14:2 15:4 16:1 20:5 22:1 23:2 24:2 25:1 28:1 41:1 253:0
0 1:10 2:8 3:4 4:2 5:1 6:2 7:6 8:2 9:3 11:1 14:6 15:7 16:3 20:2 29:2 33:4 34:2 36:2 37:1 66:1 94:2 95:1 96:1 253:0
0 1:6 2:6 4:11 5:3 6:4 9:3 10:14 11:3 12:2 13:1 14:4 15:4 16:1 20:4 253:0
0 1:8 2:7 3:2 4:11 5:7 6:2 7:4 8:2 9:11 10:11 11:8 12:2 13:1 23:1 24:1 28:1 29:5 33:2 34:1 36:3 37:1 253:0
0 1:10 2:9 3:2 4:8 5:5 6:3 7:2 8:1 9:6 10:4 11:6 12:3 13:2 14:2 15:2 16:1 23:1 24:1 25:1 27:1 28:1 41:1 54:1 133:1 224:1 253:0
0 1:6 2:6 4:11 5:3 6:2 9:3 10:10 11:3 15:6 16:3 20:7 22:1 23:1 24:1 253:0
0 1:12 2:12 4:3 5:2 6:4 9:3 10:1 11:1 15:1 20:1 23:1 24:1 26:2 27:1 28:1 29:2 32:1 38:1 40:1 72:2 253:0
0 1:2 2:1 3:2 4:6 5:5 6:2 7:4 8:2 9:8 10:2 11:7 12:2 13:1 15:1 20:1 22:1 23:2 24:3 29:1 36:3 37:1 41:1 253:0
0 4:7 10:2 15:12 16:6 20:14 253:0
0 1:9 2:8 3:2 4:9 5:6 6:8 7:2 8:1 9:7 10:1 11:5 12:3 13:1 23:2 24:2 25:2 28:2 29:2 33:2 34:1 253:0
0 74:2 116:1 117:2 159:1 253:0
0 4:21 10:30 12:4 13:1 15:11 16:5 20:19 22:1 23:1 24:1 50:1 51:3 52:3 53:3 55:1 82:1 253:0
0 1:10 2:9 3:2 4:4 6:7 7:2 8:1 10:1 14:2 15:3 16:1 20:3 25:1 26:2 27:1 253:0
0 1:6 2:6 26:2 27:1 59:2 60:2 61:4 62:2 63:4 64:4 65:2 92:4 253:0
0 1:4 2:3 3:2 4:1 6:1 7:2 8:1 9:3 25:1 29:2 35:1 40:1 72:1 88:1 89:1 98:1 99:2 114:1 253:0
0 1:12 2:12 4:4 5:4 6:4 9:5 11:4 29:2 62:2 92:4 93:1 253:0
0 1:14 2:15 3:3 4:6 5:6 6:5 7:2 8:1 9:4 10:5 11:2 23:1 24:1 25:1 26:4 27:2 28:1 29:2 33:2 34:1 253:0
0 1:6 2:6 4:13 5:3 6:2 9:2 10:15 11:1 15:1 20:1 22:1 23:2 24:2 28:1 253:0
0 4:3 5:2 9:5 11:3 12:1 13:1 15:3 16:1 20:3 23:1 28:2 32:1 35:1 38:1 39:1 40:1 41:1 62:2 72:1 93:1 107:2 108:1 253:0
0 1:13 2:14 3:7 4:8 5:2 6:2 7:8 8:4 9:3 10:9 15:2 20:4 29:2 30:2 31:1 36:2 37:2 66:2 253:0
0 1:6 2:6 4:7 5:4 6:4 9:5 10:4 11:4 23:1 24:1 28:1 29:2 253:0
0 1:6 2:6 4:9 5:3 6:2 9:3 10:6 11:3 15:2 16:1 20:2 26:2 27:1 253:0
0 1:6 2:6 4:5 5:2 6:4 9:2 10:4 11:1 26:2 27:1 253:0
0 1:12 2:10 3:4 4:2 5:1 6:5 7:4 8:1 9:4 11:1 14:2 15:2 16:1 23:1 24:1 25:1 26:2 27:1 28:1 29:2 36:2 66:1 94:2 95:1 96:1 253:0
0 1:12 2:12 4:4 5:1 6:4 9:3 10:1 11:3 12:2 13:1 14:2 15:2 20:1 33:2 34:1 40:1 72:2 73:1 74:1 75:1 253:0
0 1:12 2:12 4:15 5:3 6:8 9:1 10:17 14:2 15:3 16:1 20:1 253:0
0 1:12 2:12 4:3 6:6 9:2 11:1 15:1 20:1 22:1 23:1 24:1 29:4 253:0
0 1:6 2:6 4:16 6:6 10:23 15:1 20:1 22:1 23:1 24:1 62:1 63:2 64:2 65:1 84:1 85:1 86:2 92:2 253:0
0 1:1 3:2 7:4 8:2 9:1 37:1 62:1 66:2 110:2 253:0
0 1:12 2:12 3:5 4:4 5:6 6:1 7:4 8:2 9:8 11:7 14:2 15:2 16:1 23:1 24:1 25:1 28:1 29:3 36:1 253:0
0 1:6 2:6 4:7 5:7 9:5 10:5 11:4 14:2 15:3 16:1 20:2 22:1 23:3 24:3 28:2 62:2 93:1 100:1 107:4 253:0
0 1:7 2:4 3:7 4:6 5:1 6:4 7:13 8:6 9:1 10:2 25:6 33:2 34:1 37:4 66:2 94:3 95:1 253:0
0 1:1 3:2 4:6 5:5 7:2 9:4 10:5 11:3 15:1 20:1 22:1 23:2 24:2 28:1 62:2 63:2 64:4 65:1 66:1 93:1 94:2 95:2 96:1 100:1 107:4 144:1 253:0
0 1:14 2:12 3:8 4:7 5:1 6:8 7:10 8:3 9:4 10:4 23:1 24:1 25:2 28:1 29:4 37:2 66:4 94:4 95:2 96:2 253:0
0 1:6 2:6 4:2 5:1 9:1 10:1 14:4 15:4 16:2 20:3 26:2 27:1 58:1 59:2 61:4 63:2 65:1 171:1 253:0
0 1:18 2:18 4:5 5:1 6:4 9:2 10:3 11:1 14:6 15:6 16:3 20:5 22:2 23:3 24:3 28:1 29:2 253:0
0 4:23 10:28 12:5 13:2 15:5 16:2 20:8 22:2 23:2 24:2 253:0
0 1:1 3:2 4:5 5:2 6:1 7:4 8:2 9:4 10:3 11:1 15:3 16:1 20:4 23:1 24:1 25:1 28:1 29:1 32:1 36:1 37:1 38:1 39:1 40:1 66:2 253:0
0 1:12 2:12 4:5 6:4 10:3 12:2 13:1 14:4 15:4 16:2 20:2 23:1 24:2 54:1 253:0
0 1:12 2:12 4:4 5:4 6:4 9:6 10:1 11:2 23:2 24:2 28:2 88:2 98:2 99:2 114:6 152:2 253:0
0 1:6 2:6 4:4 5:3 6:2 9:1 10:4 14:4 15:3 20:1 22:1 23:1 24:1 253:0
0 1:6 2:6 4:7 5:1 6:4 9:1 10:7 23:1 24:1 28:1 74:1 97:1 253:0
0 1:11 2:11 3:5 4:7 5:1 6:3 7:10 8:4 9:5 10:6 11:2 14:2 15:2 16:1 20:1 25:3 29:3 36:3 37:3 66:2 94:2 95:1 253:0
0 1:12 2:12 4:8 5:3 6:4 9:3 10:6 11:3 15:2 16:1 20:3 22:1 23:1 24:1 253:0
0 4:4 5:2 9:1 10:4 15:1 20:1 22:1 23:1 24:1 253:0
0 1:6 2:6 4:16 5:2 6:2 9:3 10:20 11:3 15:3 16:1 20:6 22:1 23:1 24:1 253:0
0 1:4 2:1 3:6 4:12 5:3 6:4 7:6 8:2 9:3 10:15 11:1 15:1 20:1 23:1 24:1 25:2 28:1 29:1 36:1 66:1 74:1 94:2 95:1 96:1 105:2 253:0
0 1:8 2:9 3:3 4:13 5:4 6:3 7:2 8:1 9:3 10:17 11:3 15:4 16:2 20:2 22:1 23:1 24:1 25:1 253:0
0 1:17 2:20 4:2 5:1 6:4 9:4 11:1 14:2 15:2 16:1 20:1 22:1 23:1 24:1 29:2 35:1 39:3 40:2 72:1 253:0
0 1:3 2:2 4:8 5:6 6:1 9:5 10:3 11:4 12:3 13:1 15:3 16:1 20:3 22:2 23:4 24:4 28:2 41:1 42:2 43:1 44:2 62:2 93:1 100:1 102:1 107:2 253:0
0 1:6 2:6 4:12 5:8 6:4 9:6 10:9 11:4 14:2 15:1 58:3 59:2 61:4 63:2 65:1 171:1 253:0
0 1:10 2:9 3:6 4:9 5:7 6:3 7:6 8:3 9:9 10:4 11:7 12:2 13:1 23:2 24:2 25:1 26:2 27:1 28:2 36:2 37:1 66:2 253:0
0 1:6 2:6 4:8 5:2 6:2 9:3 10:11 11:3 90:1 91:1 253:0
0 1:12 2:12 4:3 6:8 14:12 15:16 16:8 20:2 22:2 23:2 24:2 55:2 253:0
0 1:12 2:12 4:3 5:1 6:6 9:2 11:1 14:2 15:1 23:1 24:1 26:2 27:1 28:1 29:2 59:1 60:1 61:2 62:1 63:2 64:2 65:1 92:2 253:0
0 1:6 2:6 4:6 5:2 9:3 10:7 11:1 26:2 27:1 29:2 35:1 58:1 59:2 60:2 61:4 62:2 63:4 64:4 65:2 92:4 253:0
0 1:12 2:12 4:4 5:4 6:2 9:3 10:1 11:3 14:2 15:2 16:1 20:1 27:1 76:1 253:0
0 1:10 2:8 3:5 4:7 5:5 6:2 7:5 8:2 9:8 10:5 11:7 15:1 20:2 23:1 28:2 29:3 33:4 34:2 35:1 36:1 37:1 94:3 95:1 253:0
0 1:8 2:5 3:7 4:9 5:5 6:4 7:7 8:3 9:5 10:6 11:4 14:3 15:4 16:2 20:4 23:1 24:1 28:1 29:1 33:2 34:1 36:1 37:1 94:3 95:1 103:1 253:0
0 1:6 2:6 4:5 5:1 6:6 9:4 10:3 11:2 12:1 13:1 35:1 41:2 98:1 99:2 253:0
0 1:8 2:9 4:9 5:10 6:3 9:9 10:7 11:7 17:3 18:1 19:2 21:1 23:1 28:2 35:1 58:1 59:1 60:1 61:2 62:1 63:2 64:2 65:1 253:0
0 1:6 2:6 4:12 5:3 6:4 9:1 10:10 14:2 15:4 16:1 20:3 34:3 112:3 113:3 253:0
0 1:6 2:6 4:3 5:2 6:2 9:4 11:2 15:2 20:2 22:2 23:4 24:4 26:2 27:1 28:2 29:4 90:1 91:1 253:0
0 1:12 2:12 4:3 5:2 6:4 9:4 10:1 11:3 23:1 24:1 26:2 27:1 28:1 29:2 38:1 40:1 72:2 253:0
0 1:12 2:12 4:8 5:5 6:2 9:7 10:5 11:6 12:2 13:1 14:6 15:6 16:3 23:1 24:2 29:4 54:1 55:1 58:1 59:1 60:1 61:2 62:1 63:2 64:2 65:1 253:0
0 4:1 5:2 9:2 253:0
0 4:5 5:1 7:2 9:1 10:4 25:2 37:1 66:1 94:2 95:3 96:1 144:2 253:0
0 4:26 10:37 12:5 13:2 15:2 16:1 20:4 22:1 23:4 24:7 27:1 34:1 76:1 112:3 253:0
0 1:9 2:8 4:10 5:4 6:5 9:3 10:8 11:3 14:1 15:2 16:1 20:1 22:1 23:2 24:3 33:2 34:1 42:2 43:1 44:2 102:1 155:1 253:0
0 1:6 2:6 4:18 6:4 10:20 14:2 15:5 16:1 20:6 22:1 23:1 24:1 253:0
0 1:3 2:2 4:9 5:7 6:2 9:5 10:8 11:4 15:2 20:2 22:2 23:4 24:4 28:2 42:2 43:1 44:2 62:2 93:1 100:1 107:4 253:0
0 1:6 2:6 4:10 5:7 9:11 10:9 11:10 23:1 26:4 27:2 28:2 29:2 35:1 253:0
0 1:18 2:18 4:9 6:12 10:4 14:4 15:5 16:1 20:4 22:1 23:2 24:3 253:0
0 1:12 2:12 4:12 5:4 6:12 9:4 10:6 11:2 12:2 13:1 14:2 15:2 20:2 23:1 24:1 28:1 29:2 253:0
0 1:6 2:6 4:4 5:3 6:2 9:3 10:2 11:3 15:2 16:1 20:3 253:0
0 1:12 2:12 4:4 5:3 6:4 9:4 10:1 11:3 23:1 24:1 26:2 27:1 28:1 29:2 38:1 40:1 72:2 118:1 119:1 253:0
0 1:7 2:6 3:2 4:13 5:4 6:2 7:4 8:2 9:4 10:16 11:3 14:2 15:4 16:2 20:6 26:2 27:1 37:1 66:2 253:0
0 1:14 2:13 3:2 4:4 5:3 6:6 7:4 8:2 9:3 11:3 14:4 15:4 16:2 20:1 23:1 24:1 25:2 28:1 34:3 37:1 111:3 113:3 253:0
0 4:21 10:33 12:6 13:2 15:4 20:8 23:1 24:2 253:0
0 1:12 2:12 4:5 6:6 10:5 23:2 24:4 30:2 31:1 253:0
0 1:6 2:6 4:7 5:3 6:2 9:3 10:4 11:1 15:4 16:1 20:5 22:2 23:3 24:3 27:2 28:1 29:2 74:1 76:2 97:1 104:1 115:1 116:1 117:1 253:0
0 1:14 2:12 3:4 4:3 5:1 6:7 7:4 8:2 9:2 11:1 14:4 15:4 16:2 23:1 24:1 25:1 26:2 27:1 28:1 29:1 33:2 34:3 36:1 55:1 111:4 113:1 253:0
0 1:10 2:9 3:2 4:7 5:1 6:5 7:2 8:1 9:2 10:4 11:1 14:2 15:2 16:1 20:1 23:3 24:3 25:1 28:2 62:2 93:1 100:1 107:2 109:1 253:0
0 1:6 2:6 9:5 11:1 29:8 74:4 88:1 97:3 114:2 115:3 116:4 117:4 188:1 221:1 253:0
0 4:7 5:4 9:6 10:3 11:6 12:1 13:1 15:2 16:1 20:2 22:1 23:2 24:2 28:1 41:1 62:2 93:1 100:2 106:1 107:1 253:0
0 1:6 2:6 4:8 5:2 6:2 9:3 10:7 11:1 23:2 24:2 28:2 35:1 58:1 59:1 60:1 61:2 62:1 63:2 64:2 65:1 92:2 253:0
0 1:6 2:3 3:6 4:4 5:6 6:2 7:6 8:3 9:9 11:9 15:2 16:1 20:1 22:1 23:2 24:1 25:2 26:2 27:1 28:2 29:1 32:2 36:1 253:0
0 4:6 10:5 12:2 13:1 15:2 16:1 20:2 22:1 23:1 24:1 90:1 91:1 253:0
0 4:12 5:3 9:6 10:10 11:4 12:1 13:1 15:4 16:1 20:6 23:2 24:1 28:3 32:1 34:2 35:1 38:1 39:1 40:1 41:1 72:1 112:4 113:1 253:0
0 1:6 2:6 4:14 5:6 6:2 9:7 10:17 11:5 15:2 20:6 23:2 24:1 26:2 27:1 28:3 35:1 253:0
0 1:1 3:1 4:8 5:6 6:1 7:2 8:1 9:6 10:3 11:4 12:5 13:2 15:2 20:2 22:2 23:4 24:4 25:1 28:2 36:1 41:1 42:1 43:1 44:2 45:1 62:2 93:1 100:1 107:2 142:1 253:0
0 1:6 2:6 4:7 5:2 6:6 9:2 10:7 11:1 34:3 112:3 113:3 253:0
0 1:10 2:9 3:2 4:2 5:3 7:2 8:1 9:6 10:1 11:6 29:3 36:1 62:2 92:4 93:1 253:0
0 1:1 3:2 4:3 5:2 6:1 7:4 8:2 9:7 11:6 15:4 16:2 20:4 23:2 24:1 25:1 28:3 29:1 35:1 36:1 37:1 55:1 66:2 253:0
0 1:15 2:14 3:5 4:4 5:1 6:8 7:6 8:2 9:1 14:2 15:2 16:1 33:2 34:1 37:2 62:2 63:2 64:4 65:1 66:2 92:2 93:1 94:2 95:1 107:1 253:0
0 1:9 2:8 3:7 4:10 5:7 6:1 7:6 8:2 9:7 10:8 11:5 25:1 29:3 36:3 90:1 91:1 94:2 95:1 253:0
0 1:4 2:2 3:4 4:12 5:4 6:4 7:6 8:2 9:4 10:12 11:1 25:2 26:2 27:1 36:2 37:1 66:1 94:2 95:1 96:1 253:0
0 4:31 10:44 12:3 13:1 15:4 16:1 20:7 22:1 23:3 24:5 253:0
0 4:20 10:22 12:2 13:1 15:4 16:1 20:6 22:1 23:2 24:3 253:0
0 1:6 2:6 4:16 5:4 6:4 9:3 10:21 11:3 14:4 15:4 16:1 20:5 23:1 24:2 253:0
0 1:12 2:12 4:6 5:2 6:4 9:2 10:3 14:4 15:4 16:2 20:2 39:2 40:2 72:2 253:0
0 4:3 5:1 9:1 10:2 15:1 20:1 22:1 23:1 24:1 253:0
0 4:3 5:2 9:5 10:1 11:3 12:1 13:1 15:3 16:1 20:3 23:1 28:2 35:1 38:1 39:1 40:1 41:1 47:1 48:1 49:2 50:1 51:2 52:2 53:1 72:1 151:1 253:0
0 1:9 2:10 3:3 7:2 8:1 9:1 14:2 15:1 29:2 74:1 97:1 115:1 116:1 117:1 253:0
0 1:8 2:6 3:4 7:4 8:2 9:2 14:1 15:2 16:1 29:3 36:1 58:1 59:1 60:1 61:2 62:1 63:2 64:2 65:1 92:2 103:1 253:0
0 1:6 2:6 4:17 5:4 6:4 9:3 10:22 11:3 14:2 15:2 20:3 253:0
0 1:6 2:6 4:8 5:1 6:2 9:1 10:6 14:2 15:4 16:2 20:2 22:2 23:3 24:3 28:1 74:1 97:1 253:0
0 1:14 2:11 3:7 4:5 6:10 7:7 8:3 9:1 25:2 29:1 34:6 36:1 37:1 94:3 95:1 112:6 113:6 118:2 119:1 253:0
0 4:23 10:35 12:5 13:2 15:3 20:6 23:2 24:4 253:0
0 1:18 2:18 4:7 5:1 6:10 7:2 9:3 10:2 11:1 14:2 15:1 23:1 24:1 25:2 28:1 29:4 37:1 40:2 72:4 88:2 89:2 94:2 95:3 114:3 144:2 253:0
0 1:10 2:10 3:4 4:7 5:2 6:2 7:6 8:3 9:2 10:6 11:1 15:1 20:2 25:2 29:1 36:1 37:2 253:0
0 4:10 5:4 9:3 10:8 11:3 15:5 16:1 20:9 22:1 23:1 24:1 253:0
0 1:6 2:6 4:8 5:8 6:2 9:6 10:3 11:4 12:5 13:2 14:2 15:2 20:1 22:1 23:3 24:3 28:2 41:1 62:2 93:1 100:1 107:2 253:0
0 1:6 2:6 4:7 5:2 9:5 10:5 11:2 12:3 13:1 14:2 15:2 16:1 20:1 23:3 24:2 26:4 27:2 28:4 29:2 35:1 40:2 72:3 88:2 89:2 90:1 91:1 114:3 141:1 253:0
0 1:10 2:9 3:6 4:3 6:3 7:6 8:3 14:2 15:2 16:1 20:1 25:1 34:3 37:1 62:2 63:1 64:2 93:1 107:1 110:2 112:3 113:3 253:0
0 1:12 2:12 4:10 6:12 10:8 14:2 15:1 23:3 24:6 253:0
0 1:6 2:6 4:8 5:4 6:2 9:4 10:10 11:3 23:1 24:1 28:1 253:0
0 1:12 2:12 4:6 5:7 9:9 10:1 11:9 15:2 16:1 20:2 22:1 23:1 24:1 26:2 27:1 29:4 62:2 92:4 93:1 253:0
0 1:9 2:8 4:5 5:5 6:1 9:6 10:3 11:6 29:2 42:2 43:1 44:2 102:1 253:0
0 1:6 2:5 3:7 4:8 5:1 7:6 8:3 9:1 10:6 15:3 16:1 17:3 18:1 19:2 20:5 25:2 32:1 37:1 66:2 90:1 91:1 253:0
0 1:6 2:6 4:3 5:3 9:3 10:1 11:1 14:2 15:2 16:1 20:2 26:4 27:2 38:1 39:1 40:1 72:1 253:0
0 4:18 5:3 9:3 10:20 11:1 12:3 13:1 15:8 16:4 20:13 22:1 23:2 24:1 28:2 32:1 253:0
0 1:4 2:3 3:2 7:2 8:1 9:2 29:4 253:0
0 1:18 2:18 4:8 5:6 6:6 9:6 10:6 11:6 15:1 20:2 23:1 24:1 28:1 253:0
0 4:3 5:2 9:3 10:2 11:3 23:1 24:1 28:1 253:0
0 4:25 10:34 12:5 13:2 15:7 16:3 20:8 22:3 23:4 24:5 55:1 253:0
0 1:12 2:12 4:3 6:4 9:4 10:2 11:3 15:1 20:2 23:1 28:2 29:4 35:1 253:0
0 1:6 2:4 3:7 4:9 5:5 6:5 7:10 8:5 9:5 10:4 11:2 15:1 20:2 25:1 29:1 36:3 37:3 66:2 253:0
0 1:8 2:9 3:3 4:9 5:3 6:1 7:2 8:1 9:3 10:9 11:3 14:2 15:3 16:1 20:3 23:1 24:1 25:1 28:1 253:0
0 1:6 2:6 4:14 5:3 6:2 9:3 10:15 11:3 15:1 20:3 253:0
0 1:6 2:6 4:6 5:6 6:2 9:5 10:3 11:4 14:4 15:4 16:2 23:1 24:1 28:1 30:2 31:1 253:0
0 1:3 2:3 3:4 7:6 8:2 14:1 15:1 37:2 94:2 95:1 103:1 253:0
0 1:8 2:7 3:6 4:13 5:5 6:5 7:6 8:2 9:4 10:12 11:3 23:2 24:3 25:3 28:1 37:1 66:1 94:2 95:1 96:1 253:0
0 1:12 2:12 4:3 5:1 6:4 9:3 10:1 11:3 15:2 16:1 20:3 253:0
0 1:7 2:8 3:1 4:20 5:8 7:1 9:9 10:25 11:9 23:2 24:2 28:2 29:1 36:1 42:2 44:1 174:1 175:1 176:1 253:0
0 1:12 2:12 4:6 5:6 6:8 9:7 10:3 11:5 23:3 24:2 26:2 27:1 28:4 29:2 34:3 35:1 112:3 113:3 253:0
0 1:12 2:12 4:7 5:3 6:4 9:3 10:10 11:1 38:1 39:1 40:1 72:1 253:0
0 1:12 2:12 4:7 5:5 6:4 9:4 10:5 11:2 14:6 15:6 16:2 20:3 23:1 24:1 28:1 29:2 253:0
0 1:14 2:13 3:2 4:8 5:5 6:4 7:2 9:8 10:4 11:6 14:2 15:2 16:1 23:3 24:3 25:2 28:3 29:6 66:1 94:2 95:1 96:1 253:0
0 1:12 2:12 4:9 5:2 6:4 9:3 10:10 11:3 15:2 16:1 20:3 22:1 23:1 24:1 253:0
0 4:21 10:31 12:3 13:1 15:1 20:3 23:1 24:2 118:1 119:1 253:0
0 1:6 2:6 4:8 5:2 6:2 9:3 10:10 11:3 14:2 15:1 23:1 24:2 253:0
0 1:6 2:6 4:2 5:3 6:2 9:6 11:3 23:1 24:1 28:1 29:6 74:2 97:2 115:2 116:2 117:2 253:0
0 1:12 2:12 4:3 5:3 6:2 9:4 11:3 14:4 15:3 16:1 20:1 23:1 24:1 27:2 28:1 29:2 74:1 76:2 97:1 104:1 115:1 116:1 117:1 253:0
0 1:15 2:16 3:7 4:8 5:4 7:6 8:3 9:5 10:9 11:3 14:2 15:4 16:2 20:3 29:3 36:1 37:1 66:2 253:0
0 1:10 2:9 3:2 4:5 5:1 7:2 8:1 9:5 10:4 11:2 14:2 15:2 16:1 20:1 26:2 27:1 29:2 35:1 38:1 39:2 40:1 91:1 157:1 253:0
0 1:7 2:6 3:2 4:2 5:3 6:1 7:2 9:5 11:2 25:1 29:3 30:2 31:1 33:2 34:1 36:1 39:1 40:1 58:1 59:2 61:4 63:2 65:1 69:2 70:2 72:1 73:1 74:1 171:1 197:1 253:0
0 1:6 2:6 4:6 5:1 9:3 10:5 11:3 14:2 15:4 16:2 20:5 22:1 23:2 24:2 26:2 27:1 28:1 253:0
0 1:12 2:9 3:7 4:5 5:3 6:4 7:7 8:2 9:4 10:3 11:3 29:3 33:4 34:5 36:1 37:1 66:1 94:5 95:2 96:1 112:3 113:3 253:0
0 1:6 2:6 4:17 5:5 6:6 9:5 10:21 11:6 14:2 15:2 20:3 23:2 24:3 28:1 253:0
0 1:6 2:6 9:2 26:2 27:1 29:2 38:1 39:1 40:1 58:1 59:2 60:2 61:4 62:2 63:4 64:4 65:2 92:4 253:0
0 1:13 2:14 3:3 4:3 5:2 6:2 7:2 9:4 10:1 11:3 14:1 15:2 16:1 20:1 66:1 94:2 95:1 96:1 103:1 253:0
0 4:5 9:1 10:5 15:2 16:1 20:3 22:1 23:1 28:1 32:1 253:0
0 1:12 2:12 4:14 5:11 6:4 9:11 10:11 11:10 23:1 24:1 26:2 27:1 28:1 29:4 35:1 253:0
0 1:7 2:5 3:4 4:3 5:1 6:5 7:4 8:2 9:4 10:1 11:1 23:1 24:1 25:1 28:1 29:2 35:1 38:1 39:2 40:1 253:0
0 1:8 2:7 3:2 4:2 6:2 7:4 8:2 9:2 25:2 29:2 36:2 37:1 58:1 59:1 60:1 61:2 62:1 63:2 64:2 65:1 92:2 253:0
0 1:12 2:12 4:6 5:4 6:4 9:4 10:3 11:2 12:3 13:1 15:1 20:1 22:1 23:3 24:3 26:2 27:1 28:2 29:2 253:0
0 1:12 2:12 4:5 6:6 10:3 12:2 13:1 14:4 15:2 253:0
0 1:11 2:14 4:3 5:2 6:2 9:2 10:1 11:1 14:2 15:2 16:1 23:1 24:1 28:1 253:0
0 4:6 9:2 10:8 15:4 16:2 20:2 22:2 23:2 28:2 32:2 253:0
0 1:6 2:6 4:3 5:3 6:2 9:3 11:3 14:4 15:3 16:1 23:1 24:1 28:1 253:0
0 1:6 2:6 4:6 5:4 6:4 9:3 10:2 11:3 15:2 16:1 20:3 34:3 112:3 113:3 253:0
0 1:12 2:12 4:7 5:4 9:6 10:8 11:6 29:4 62:2 92:4 93:1 253:0
0 1:12 2:10 3:4 4:5 5:2 6:6 7:4 8:1 9:1 10:1 14:4 15:3 16:1 20:1 23:1 24:1 25:2 66:1 94:2 95:1 96:1 253:0
0 1:9 2:10 3:3 4:5 5:5 6:2 7:2 8:1 9:5 10:1 11:4 14:2 15:1 26:2 27:1 253:0
0 1:4 2:3 3:2 4:5 5:1 6:2 7:2 8:1 9:1 10:4 38:1 40:1 72:2 253:0
0 1:12 2:12 4:5 5:5 6:6 9:6 10:2 11:6 29:2 253:0
0 1:1 3:2 4:7 5:5 7:4 8:2 9:7 10:5 11:6 15:1 20:2 23:1 24:1 25:2 28:1 37:1 66:2 253:0
0 4:11 5:8 9:7 10:9 11:6 15:1 20:1 22:1 23:2 24:2 28:1 38:1 39:1 40:1 62:2 93:1 100:1 107:4 253:0
0 1:6 2:6 4:2 5:2 9:6 10:1 11:3 26:2 27:1 29:2 35:2 39:4 40:2 253:0
0 1:12 2:12 4:8 5:6 6:6 9:6 10:2 11:6 12:3 13:1 15:1 20:1 34:3 62:2 92:4 93:1 112:3 113:3 253:0
0 1:6 2:6 4:15 6:4 10:22 14:2 15:2 20:2 34:1 112:2 253:0
0 1:12 2:12 4:7 5:1 6:8 9:2 10:5 11:1 12:2 13:1 253:0
0 1:7 2:6 3:1 4:3 5:2 6:3 7:2 8:1 9:4 11:2 12:2 13:1 15:1 20:1 23:1 24:1 28:1 36:1 41:1 42:1 43:1 44:2 45:1 54:1 58:2 59:1 60:1 61:2 62:1 63:2 64:2 65:1 92:2 102:1 142:1 253:0
0 1:15 2:17 3:6 4:6 5:6 6:3 7:6 8:3 9:8 10:2 11:7 12:4 13:1 23:2 24:2 25:1 28:2 36:2 37:1 253:0
0 4:20 5:5 9:4 10:22 11:2 12:6 13:2 253:0
0 1:14 2:12 3:4 4:8 5:4 6:6 7:4 8:2 9:4 10:3 11:3 15:2 16:1 20:2 23:1 24:1 25:2 28:1 29:1 36:1 58:1 59:1 60:1 61:2 62:1 63:2 64:2 65:1 253:0
0 1:13 2:12 3:1 4:4 6:6 7:2 8:1 10:1 15:1 20:1 22:1 23:1 24:1 25:2 26:2 27:1 42:1 43:1 44:2 45:1 102:2 253:0
0 1:10 2:9 3:2 4:2 5:1 6:4 7:2 8:1 9:4 11:1 23:1 24:1 28:1 29:2 35:1 38:1 39:2 40:1 62:2 92:4 93:1 253:0
0 1:7 2:6 3:6 4:2 6:2 7:4 8:2 15:2 20:2 25:2 74:2 105:4 253:0
0 1:6 2:6 4:7 5:1 6:4 9:1 10:7 23:1 24:1 28:1 58:1 59:1 60:1 61:2 62:1 63:2 64:2 65:1 253:0
0 1:21 2:23 3:2 4:7 5:2 6:10 7:2 8:1 9:3 10:3 11:1 15:2 16:1 20:2 22:1 23:2 24:2 28:1 29:2 253:0
0 1:12 2:12 4:2 6:4 62:4 92:8 93:2 253:0
0 1:6 2:6 4:9 5:6 6:2 7:4 8:1 9:7 10:4 11:6 25:4 29:2 37:2 66:2 94:2 95:1 253:0
0 1:2 2:1 3:5 4:4 5:1 7:8 8:4 9:2 10:3 15:4 16:1 20:6 29:1 32:1 36:1 37:3 66:2 253:0
0 1:3 2:2 4:9 5:6 6:1 9:7 10:8 11:5 12:2 13:1 23:2 24:3 28:1 29:2 41:1 42:2 43:1 44:2 102:1 253:0
0 1:6 2:6 4:2 5:1 9:3 10:1 11:1 23:1 26:2 27:1 28:2 35:1 58:1 59:1 60:1 61:2 62:1 63:2 64:2 65:1 92:2 253:0
0 1:6 2:6 4:1 5:1 6:2 9:1 23:1 24:1 28:1 58:1 59:1 60:1 61:2 62:1 63:2 64:2 65:1 92:2 253:0
0 1:9 2:8 4:8 5:8 6:4 9:11 10:2 11:10 17:2 18:1 19:2 21:2 23:2 24:1 26:2 27:1 28:3 35:1 40:1 72:1 88:1 89:1 114:2 253:0
0 1:10 2:9 3:2 4:5 5:1 6:6 7:2 8:1 9:3 10:2 11:3 12:2 13:1 15:1 20:1 22:1 23:2 24:3 29:2 41:1 253:0
0 1:3 2:2 4:4 5:3 6:1 9:3 10:1 11:1 17:2 18:1 19:2 21:1 29:1 40:1 62:2 63:2 64:4 65:1 72:1 74:1 88:1 89:1 93:1 97:1 107:2 114:2 115:1 116:1 117:1 153:1 253:0
0 116:1 253:0
0 1:6 2:5 3:5 4:10 5:3 6:4 7:8 8:2 9:3 10:4 11:1 15:2 16:1 18:1 19:2 20:2 21:2 25:4 29:2 37:1 42:1 43:1 44:2 45:1 66:1 94:4 95:2 96:1 102:2 136:2 253:0
0 1:6 2:6 4:12 5:4 9:3 10:12 11:1 14:2 15:2 16:1 20:1 23:2 24:3 28:1 33:6 34:3 253:0
0 1:6 2:6 4:9 5:7 6:2 9:5 10:8 11:4 15:2 20:2 22:2 23:4 24:4 28:2 62:2 93:1 100:1 107:4 253:0
0 1:8 2:7 3:2 4:6 6:6 7:2 10:2 14:2 15:3 16:1 20:2 22:1 23:1 24:1 25:2 33:2 34:1 94:2 95:1 253:0
0 4:4 5:1 9:6 10:3 11:3 15:4 16:1 20:6 23:1 28:2 32:1 35:2 38:2 39:3 40:2 253:0
0 1:10 2:9 3:2 7:2 8:1 9:2 29:3 36:1 58:1 59:1 60:1 61:2 62:1 63:2 64:2 65:1 92:2 253:0
0 1:12 2:12 4:6 5:2 6:4 9:3 10:4 11:3 12:4 13:1 62:2 92:4 93:1 253:0
0 1:12 2:12 4:10 5:4 6:8 9:5 10:6 11:4 14:4 15:5 16:1 20:4 23:1 24:1 28:1 253:0
0 1:6 2:6 4:6 5:6 6:4 9:4 10:2 15:2 20:2 23:2 24:2 28:2 38:2 40:2 72:2 74:2 75:2 97:2 253:0
0 4:4 5:1 9:3 10:4 11:3 15:2 16:1 20:3 22:1 23:2 24:1 28:2 32:1 253:0
0 4:7 10:6 15:1 20:1 253:0
0 1:10 2:9 3:2 4:2 5:3 6:2 7:2 8:1 9:6 11:6 14:2 15:2 16:1 29:1 36:1 253:0
0 1:8 2:7 3:1 4:9 5:7 6:6 7:1 9:5 10:5 11:4 15:1 17:1 19:1 20:1 21:1 22:1 23:3 24:3 25:1 26:4 27:2 28:2 62:2 69:1 70:1 71:1 93:1 100:1 107:4 253:0
0 1:10 2:7 3:6 4:6 5:3 6:5 7:6 8:2 9:7 10:2 11:4 12:2 13:1 14:4 15:2 16:1 23:1 24:1 25:3 28:1 35:1 38:1 39:2 40:1 41:1 66:1 94:2 95:1 96:1 253:0
0 1:11 2:14 4:5 5:2 6:2 9:2 10:3 11:1 15:2 16:1 20:3 253:0
0 1:6 2:6 4:4 5:4 6:2 9:3 10:2 11:1 23:1 24:1 26:4 27:2 28:1 39:1 40:1 72:1 88:1 89:1 114:2 253:0
0 4:9 5:10 9:8 10:4 11:7 23:2 24:2 28:2 253:0
0 1:15 2:17 3:7 7:6 8:3 9:2 29:3 33:2 34:1 36:1 66:2 253:0
0 1:6 2:6 4:8 5:7 6:2 9:5 10:6 11:4 15:1 20:1 22:1 23:3 24:3 28:2 62:2 93:1 100:1 107:4 253:0
0 4:2 5:2 9:2 11:1 15:2 20:2 253:0
0 1:12 2:12 4:3 5:4 9:5 10:2 11:4 29:4 33:4 34:2 253:0
0 1:8 2:9 3:3 4:10 5:6 6:4 7:2 8:1 9:5 10:8 11:4 12:3 13:1 15:1 20:1 23:1 24:1 28:1 253:0
0 1:10 2:9 3:2 4:5 6:2 7:2 8:1 10:3 14:2 15:6 16:3 20:7 22:2 23:2 24:2 26:2 27:1 253:0
0 1:12 2:12 4:5 5:2 6:6 9:3 10:3 11:3 15:1 20:1 22:1 23:2 24:2 28:1 29:2 253:0
0 1:9 2:8 3:2 4:6 5:5 6:3 7:2 9:5 10:3 11:4 25:1 29:1 33:4 34:5 36:1 94:2 95:1 112:3 113:3 253:0
0 4:5 5:2 9:5 10:3 11:4 12:1 13:1 15:3 16:1 20:4 23:2 24:1 27:1 28:3 32:1 34:1 35:1 41:1 76:1 112:2 133:1 253:0
0 1:12 2:12 4:8 5:2 6:8 9:3 10:4 11:3 12:6 13:2 253:0
0 4:5 5:3 9:2 10:4 11:1 15:1 20:1 22:1 23:2 24:2 28:1 62:2 107:4 253:0
0 1:2 2:1 3:5 4:4 5:1 7:8 8:4 9:2 10:3 15:5 16:1 20:8 27:1 29:1 32:1 36:1 37:3 50:1 51:3 52:3 53:3 66:2 82:2 132:2 253:0
0 1:6 2:6 4:12 5:6 6:2 9:7 10:14 11:6 12:2 13:1 15:1 20:1 22:1 23:2 24:3 26:2 27:1 29:4 33:2 34:2 41:1 112:2 253:0
0 1:8 2:9 3:3 4:13 5:4 6:7 7:2 8:1 9:4 10:10 11:3 12:1 13:1 23:2 24:2 25:1 28:2 33:2 34:1 253:0
0 1:17 2:20 4:3 5:2 6:2 9:3 10:2 11:3 14:2 15:2 16:1 20:1 253:0
0 1:12 2:12 4:6 5:1 6:8 9:3 10:2 11:3 12:5 13:2 253:0
0 1:5 2:2 3:6 4:10 5:2 6:6 7:7 8:3 9:3 10:5 11:3 15:2 16:1 20:2 25:4 26:1 27:1 36:1 37:1 42:1 43:1 44:2 45:1 94:3 95:1 142:1 183:1 253:0
0 1:6 2:6 4:11 5:6 6:2 9:7 10:9 11:6 12:2 13:1 15:1 20:1 22:1 23:2 24:3 26:2 27:1 29:4 33:2 34:1 41:1 253:0
0 1:15 2:16 3:3 4:9 5:8 6:7 7:2 8:1 9:8 10:2 11:7 15:2 16:1 20:2 23:1 24:1 25:1 28:1 33:2 34:1 253:0
0 4:4 5:4 9:6 11:6 62:2 98:2 99:2 100:2 101:2 139:2 140:1 253:0
0 1:6 2:6 4:16 5:3 6:2 7:2 9:2 10:17 11:1 14:2 15:4 16:2 20:4 22:1 23:1 24:1 25:2 26:2 27:1 37:1 94:2 95:3 144:2 253:0
0 1:12 2:12 4:3 6:4 10:2 14:10 15:10 16:4 20:2 253:0
0 1:6 2:6 4:6 5:4 6:2 9:3 10:3 11:1 14:2 15:3 16:1 20:3 23:1 24:1 28:1 253:0
0 1:12 2:12 4:8 5:2 6:4 9:3 10:10 11:3 15:1 20:2 253:0
0 1:12 2:12 4:8 5:5 6:6 9:7 10:4 11:5 14:2 15:4 16:2 20:3 22:1 23:2 24:1 28:2 29:2 32:1 90:1 91:1 253:0
0 4:21 10:22 12:2 13:1 15:3 20:5 22:1 23:2 24:3 253:0
0 1:4 2:2 3:4 4:11 5:7 6:2 7:6 8:2 9:7 10:9 11:4 15:2 16:1 20:2 23:1 24:1 25:2 28:1 29:1 36:1 37:1 38:1 39:1 40:1 66:1 72:1 94:2 95:1 96:1 253:0
0 1:12 2:12 4:14 5:9 6:4 9:7 10:15 11:6 23:1 24:1 28:1 90:1 91:1 253:0
0 4:9 5:3 9:3 10:11 11:1 15:2 16:1 20:1 32:1 38:1 39:1 40:1 141:1 253:0
0 1:6 2:6 4:15 6:4 10:22 14:2 15:2 20:2 253:0
0 1:6 2:6 3:4 4:2 7:4 8:2 9:2 10:1 11:1 15:2 16:1 22:1 23:1 28:1 32:1 36:2 37:1 62:2 92:2 93:1 107:1 253:0
0 1:10 2:8 3:6 4:7 5:5 6:3 7:5 8:2 9:9 10:4 11:9 23:2 24:1 25:1 28:3 29:3 35:1 36:1 90:1 91:1 94:3 95:1 253:0
0 1:8 2:6 3:4 4:5 5:2 6:3 7:4 8:2 9:6 10:1 11:3 14:2 15:4 16:2 20:4 23:1 25:1 28:2 29:3 30:2 31:1 35:1 36:1 253:0
0 1:6 2:6 4:16 5:3 6:4 9:5 10:12 11:3 12:4 13:2 15:7 16:3 20:9 22:1 23:2 24:1 28:2 32:1 35:1 38:1 40:1 41:1 54:1 72:1 141:1 253:0
0 1:12 2:12 4:16 5:2 6:12 9:1 10:13 14:4 15:8 16:2 20:11 23:3 24:6 55:1 253:0
0 1:12 2:12 4:7 5:3 6:8 9:2 10:6 11:1 14:4 15:2 253:0
0 1:6 2:6 4:14 5:10 6:4 9:8 10:11 11:5 15:1 20:1 22:1 23:3 24:3 28:2 39:1 40:1 72:1 253:0
0 1:10 2:7 3:6 4:11 5:2 6:2 7:6 8:2 9:3 10:11 11:1 14:4 15:5 16:2 20:5 25:2 29:3 36:1 66:1 94:2 95:1 96:1 253:0
0 1:12 2:12 4:3 6:4 10:1 12:3 13:1 14:6 15:4 16:1 20:1 253:0
0 1:6 2:6 4:3 5:1 9:2 10:2 11:1 29:2 58:2 59:2 60:2 61:4 62:2 63:4 64:4 65:2 92:2 107:1 253:0
0 1:15 2:12 3:6 4:4 5:4 6:7 7:8 8:3 9:6 11:6 25:1 29:1 36:3 37:1 94:2 95:1 253:0
0 1:21 2:22 3:3 4:6 5:2 6:12 7:2 8:1 9:2 23:2 24:2 26:2 27:1 28:2 88:1 114:2 118:2 119:1 253:0
0 1:12 2:12 4:3 5:1 6:4 9:1 10:1 23:1 24:1 28:1 62:2 63:1 64:2 74:1 93:1 97:1 107:3 253:0
0 1:6 2:6 4:5 5:3 6:2 9:4 10:1 11:3 12:3 13:1 14:4 15:2 23:1 24:1 28:1 29:2 74:1 90:1 91:1 97:1 115:1 116:1 117:1 253:0
0 1:12 2:12 4:2 6:4 9:2 11:1 15:1 20:1 22:1 23:1 24:1 26:4 27:2 29:4 253:0
0 1:11 2:11 3:5 4:7 5:6 6:3 7:6 8:3 9:6 10:7 11:4 23:1 24:1 25:1 28:1 33:2 34:1 36:2 37:1 74:1 97:1 253:0
0 1:6 2:6 4:1 6:2 14:2 15:3 16:1 20:1 22:1 23:1 24:1 253:0
0 1:4 2:3 3:2 4:11 5:6 6:2 7:2 8:1 9:8 10:12 11:7 12:2 13:1 15:2 20:1 22:1 23:2 24:3 29:2 33:2 34:1 36:2 40:1 41:1 72:2 73:1 74:1 75:1 253:0
0 1:18 2:18 4:6 5:3 6:4 9:1 10:5 14:2 15:4 16:1 20:3 26:2 27:1 62:2 92:4 93:1 253:0
0 1:14 2:13 3:2 4:6 5:4 6:8 7:2 9:8 11:5 14:2 15:3 16:1 20:2 23:1 24:1 28:1 29:6 36:2 94:2 95:1 253:0
0 1:6 2:6 4:14 5:4 6:2 9:3 10:12 11:1 14:2 15:3 16:1 20:2 22:1 23:1 24:1 58:1 59:1 60:1 61:2 62:1 63:2 64:2 65:1 107:1 253:0
0 1:12 2:12 3:4 4:6 5:6 6:2 7:4 8:2 9:10 10:3 11:7 12:1 13:1 23:1 24:1 28:1 33:2 34:1 35:1 36:2 37:1 38:1 39:2 40:1 41:1 66:2 253:0
0 1:12 2:12 4:6 5:3 6:10 9:3 10:3 11:3 14:4 15:2 253:0
0 1:12 2:12 4:6 5:3 6:8 9:4 10:2 11:2 14:2 15:4 16:2 20:2 22:1 23:3 24:2 28:3 32:1 34:3 112:3 113:3 253:0
0 1:12 2:12 4:6 5:3 6:4 9:2 10:4 11:1 14:6 15:3 253:0
0 1:10 2:9 3:4 4:5 5:5 6:2 7:5 8:2 9:6 10:3 11:4 14:2 15:3 16:1 20:2 29:3 36:1 37:1 94:3 95:1 253:0
0 4:1 15:1 20:1 46:2 47:2 48:2 49:4 50:2 51:4 52:4 53:2 151:2 166:1 253:0
0 1:12 2:12 4:9 5:5 6:4 9:3 10:11 11:3 253:0
0 1:12 2:12 4:1 5:1 6:2 9:3 11:1 14:2 15:1 23:1 24:1 26:4 27:2 28:1 29:4 74:1 97:1 115:1 116:1 117:1 253:0
0 1:6 2:6 4:13 5:3 6:8 9:6 10:9 11:4 23:1 28:2 29:2 35:1 58:1 59:1 60:1 61:2 62:1 63:2 64:2 65:1 107:2 253:0
0 1:6 2:6 4:17 5:2 6:2 9:2 10:16 11:1 12:4 13:2 15:3 20:6 23:1 24:1 28:1 253:0
0 4:6 5:11 9:10 10:1 11:8 23:4 24:4 28:4 253:0
0 1:6 2:6 4:4 5:1 6:2 9:1 10:4 15:1 20:1 22:1 23:1 24:1 253:0
0 1:13 2:12 3:6 4:2 5:1 6:3 7:8 8:3 9:5 11:1 15:2 16:1 22:1 23:1 25:3 28:1 29:4 32:1 33:4 34:2 36:2 37:2 66:1 94:2 95:1 96:1 253:0
0 1:12 2:12 4:12 5:8 6:6 9:5 10:7 11:4 15:3 16:1 20:3 22:2 23:3 24:3 28:1 253:0
0 1:6 2:6 4:6 5:2 6:2 9:2 10:10 11:1 26:4 27:2 253:0
0 4:4 5:2 9:5 10:2 11:4 12:1 13:1 15:2 16:1 20:2 23:2 24:1 28:3 32:1 34:1 35:1 41:1 112:1 179:1 253:0
0 1:6 2:6 4:2 5:1 6:2 9:1 10:1 14:4 15:2 253:0
0 1:6 2:6 4:9 5:7 9:6 10:7 11:6 15:4 16:2 20:2 22:2 23:3 24:3 28:1 29:2 253:0
0 1:3 2:2 4:4 5:1 6:3 9:2 10:2 11:1 15:2 16:1 20:3 42:2 43:1 44:2 102:1 253:0
0 1:6 2:6 4:6 5:6 6:4 9:5 10:3 11:4 23:4 24:4 28:4 253:0
0 4:14 10:18 15:4 16:1 20:4 22:2 23:2 24:2 253:0
0 1:6 2:6 4:2 6:2 12:2 13:1 14:4 15:3 20:1 22:1 23:1 24:1 253:0
0 1:6 2:6 4:13 5:9 6:2 9:6 10:10 11:4 15:2 20:2 22:2 23:3 24:3 28:1 253:0
0 1:11 2:9 3:4 4:3 6:7 7:6 8:2 9:1 25:3 26:1 27:1 33:2 34:1 36:2 37:1 94:2 95:1 132:1 253:0
0 1:6 2:6 4:5 5:4 6:2 9:2 10:4 11:1 14:4 15:3 20:2 253:0
0 1:12 2:12 4:4 5:3 6:2 9:6 10:1 11:6 12:3 13:1 15:1 20:1 23:2 24:2 26:2 27:1 28:2 29:4 54:1 253:0
0 1:14 2:15 3:3 4:6 5:7 6:5 7:2 8:1 9:6 10:3 11:6 14:4 15:4 16:2 23:2 24:2 25:1 28:2 55:1 253:0
0 1:14 2:15 3:3 4:7 5:6 6:2 7:2 8:1 9:9 10:5 11:7 23:1 26:2 27:1 28:2 29:2 33:2 34:1 35:1 66:2 253:0
0 1:16 2:15 3:6 4:7 5:1 6:6 7:6 8:3 9:4 10:2 11:1 23:1 25:4 28:2 29:2 35:1 37:1 58:1 59:1 60:1 61:2 62:1 63:2 64:2 65:1 66:2 92:2 253:0
0 1:13 2:10 3:8 4:8 5:5 6:5 7:9 8:6 9:6 10:3 11:4 23:2 24:2 25:3 28:2 29:2 36:2 37:1 118:2 119:1 253:0
0 1:12 2:12 4:8 5:4 6:8 9:4 10:4 11:3 14:4 15:3 16:1 20:2 23:1 24:1 28:1 40:1 72:2 88:1 89:1 114:1 253:0
0 1:6 2:6 4:7 5:2 6:4 9:2 10:10 11:1 253:0
0 1:8 2:9 3:3 4:11 5:6 6:2 7:2 8:1 9:6 10:8 11:4 14:1 15:2 16:1 20:1 23:1 24:1 28:1 66:2 103:1 253:0
0 1:12 2:12 4:9 5:7 6:4 9:6 10:4 11:4 15:2 16:1 20:2 22:1 23:2 24:2 27:2 28:1 29:2 33:2 34:1 76:2 253:0
0 1:19 2:20 3:3 4:3 5:1 6:7 7:4 8:2 9:4 11:2 14:4 15:6 16:3 20:1 22:1 23:2 24:2 25:1 28:1 29:2 36:2 37:1 253:0
0 253:1
0 1:12 2:12 4:7 6:6 10:6 14:8 15:8 16:4 40:2 72:4 88:1 89:2 253:0
0 4:5 5:2 9:5 10:3 11:3 12:1 13:1 15:4 16:1 20:6 23:1 27:1 28:2 32:1 35:1 38:1 39:1 40:1 41:1 72:1 76:1 133:1 253:0
0 1:17 2:19 3:3 4:5 5:4 6:3 7:2 8:1 9:5 11:4 14:6 15:6 16:3 17:3 18:1 19:2 20:3 21:1 23:1 24:1 28:1 253:0
